ITEM: TIMESTEP
56000
ITEM: NUMBER OF ATOMS
8
ITEM: BOX BOUNDS pp pp pp
0 158.26
0 158.26
0 158.26
ITEM: ATOMS id type x y z c_myKE c_myPE
138124 1 76.2528 39.151 16.6142 0.0681128 -6.68831
141076 1 82.6006 69.8509 22.2929 0.256685 -7.16629
160923 1 72.8662 59.9753 45.2588 0.586295 -7.10487
40924 1 73.9947 57.3856 48.4767 0.0769503 -6.52246
163472 1 69.9392 61.0306 48.4507 0.287506 -6.89401
201279 1 89.8896 82.4496 98.3649 0.0457549 -6.02152
72920 1 61.6896 24.7792 93.6262 0.0651796 -6.60454
76330 1 91.7667 84.0273 96.7349 0.189763 -6.4991
