ITEM: TIMESTEP
60000
ITEM: NUMBER OF ATOMS
9
ITEM: BOX BOUNDS pp pp pp
0 158.26
0 158.26
0 158.26
ITEM: ATOMS id type x y z c_myKE c_myPE
158517 1 53.9369 66.7366 44.2263 0.247495 -7.09003
36019 1 60.2236 66.4169 47.5118 0.0985162 -6.60891
193777 1 85.5446 82.4354 87.1549 0.0607733 -5.79959
191822 1 67.8647 117.609 86.4343 0.0805201 -6.38644
23516 1 47.1064 62.867 27.7522 0.290975 -6.92857
156406 1 16.9135 90.6808 37.3684 0.412073 -6.33423
38826 1 79.0252 82.0052 47.1078 0.183142 -6.21785
41120 1 55.4959 71.2094 48.5054 0.0793384 -6.11597
49309 1 24.5009 115.991 61.4841 0.118125 -5.40496
