ITEM: TIMESTEP
57174
ITEM: NUMBER OF ATOMS
12
ITEM: BOX BOUNDS pp pp pp
0 158.26
0 158.26
0 158.26
ITEM: ATOMS id type x y z
55774 1 73.5909 48.2693 70.4257
63114 1 41.9389 38.7737 79.9213
65664 1 41.9389 41.9389 83.0865
78120 1 60.9301 38.7737 98.9125
161118 1 56.1823 72.0083 46.6867
175874 1 75.1735 56.1823 65.6779
178424 1 75.1735 59.3475 68.8431
178622 1 68.8431 72.0083 68.8431
190664 1 43.5215 43.5215 84.6691
190713 1 40.3563 46.6867 84.6691
193163 1 40.3563 43.5215 87.8343
207968 1 56.1823 30.8607 106.826
