ITEM: TIMESTEP
60076
ITEM: NUMBER OF ATOMS
12
ITEM: BOX BOUNDS pp pp pp
0 158.26
0 158.26
0 158.26
ITEM: ATOMS id type x y z
32862 1 35.6085 22.9477 41.9389
35412 1 35.6085 26.1129 45.1041
53563 1 38.7737 67.2605 67.2605
53614 1 41.9389 70.4257 67.2605
56113 1 38.7737 70.4257 70.4257
63027 1 83.0865 32.4433 79.9213
73521 1 64.0953 64.0953 92.5821
73570 1 60.9301 67.2605 92.5821
172965 1 46.6867 30.8607 62.5127
175466 1 49.8519 30.8607 65.6779
176062 1 37.1911 68.8431 65.6779
183775 1 78.3387 81.5039 75.1735
