ITEM: TIMESTEP
61180
ITEM: NUMBER OF ATOMS
11
ITEM: BOX BOUNDS pp pp pp
0 158.26
0 158.26
0 158.26
ITEM: ATOMS id type x y z c_myKE c_myPE
162917 1 51.8286 31.4495 47.3916 0 -6.25688
173272 1 67.7741 48.6418 61.275 0 -6.82835
175370 1 61.4088 23.1338 64.5887 0 -6.25547
173273 1 69.5448 50.4121 59.692 0 -6.54341
182982 1 101.287 33.0513 75.7548 0 -6.25568
71127 1 85.2681 71.339 90.4684 0 -6.33594
71614 1 40.6749 104.478 90.462 0 -6.25557
78728 1 87.1697 77.5899 97.9669 0 -6.6122
78779 1 90.5126 80.9096 98.0377 0 -7.52892
78780 1 91.6286 78.9769 100.011 0 -6.9133
96280 1 93.6599 80.9041 122.359 0 -6.25587
