ITEM: TIMESTEP
60000
ITEM: NUMBER OF ATOMS
21
ITEM: BOX BOUNDS pp pp pp
0 158.26
0 158.26
0 158.26
ITEM: ATOMS id type x y z c_myKE c_myPE
171522 1 67.6849 98.5535 58.2583 0.177395 -6.67142
63625 1 74.449 67.9032 79.1786 0.137111 0
191074 1 75.9734 69.7618 83.8303 0.256219 -7.54488
196122 1 69.8264 73.0644 90.5674 0.427023 -6.3926
203012 1 37.9201 34.5373 99.2032 0.343821 -7.13496
200866 1 44.6036 55.2836 101.555 0.191501 -6.93556
34610 1 28.3057 135.13 40.8 0.212738 -6.29415
36268 1 55.0864 81.0549 43.9857 0.0455208 -6.43878
162774 1 77.9727 17.232 47.0341 0.16543 -6.4408
49073 1 69.5053 100.028 59.8915 0.0295876 -6.69253
61226 1 74.4865 71.2822 75.9309 0.103094 -7.11629
61082 1 99.9738 68.0641 77.5907 0.352774 -6.20202
61124 1 71.0379 71.1815 78.8952 0.258948 -6.75265
188575 1 75.9345 66.1627 80.7369 0.0637488 -7.1711
183576 1 75.7293 69.5855 80.8055 0.177164 -7.76429
66125 1 77.3247 68.0606 82.0784 0.0158998 -7.53711
80816 1 48.7543 53.6594 101.227 0.104347 -7.83601
83366 1 46.4638 53.6815 105.055 0.132947 -8.04547
203316 1 50.1311 52.0248 104.48 0.0062638 -6.51592
83317 1 49.8945 52.0879 107.437 0.10493 -7.33896
83675 1 77.5212 72.5055 106.419 0.119491 -6.76586
