ITEM: TIMESTEP
60336
ITEM: NUMBER OF ATOMS
21
ITEM: BOX BOUNDS pp pp pp
0 158.26
0 158.26
0 158.26
ITEM: ATOMS id type x y z
55919 1 57.7649 57.7649 70.4257
58320 1 60.9301 51.4345 73.5909
58371 1 64.0953 54.5997 73.5909
58372 1 67.2605 54.5997 73.5909
58422 1 67.2605 57.7649 73.5909
58469 1 57.7649 60.9301 73.5909
60868 1 54.5997 54.5997 76.7561
60871 1 64.0953 54.5997 76.7561
60918 1 54.5997 57.7649 76.7561
60921 1 64.0953 57.7649 76.7561
63416 1 48.2693 57.7649 79.9213
63466 1 48.2693 60.9301 79.9213
70968 1 54.5997 60.9301 89.4169
70969 1 57.7649 60.9301 89.4169
178323 1 72.0083 53.0171 68.8431
178424 1 75.1735 59.3475 68.8431
180920 1 62.5127 59.3475 72.0083
180921 1 65.6779 59.3475 72.0083
183369 1 59.3475 56.1823 75.1735
185872 1 68.8431 56.1823 78.3387
193366 1 49.8519 56.1823 87.8343
