ITEM: TIMESTEP
56000
ITEM: NUMBER OF ATOMS
10
ITEM: BOX BOUNDS pp pp pp
0 158.26
0 158.26
0 158.26
ITEM: ATOMS id type x y z c_myKE c_myPE
156219 1 57.9944 79.3375 40.9857 0.0232654 -6.51896
50623 1 69.6068 35.6244 64.1617 0.0510119 -6.41197
178820 1 63.7096 83.843 69.7646 0.0569949 -6.7771
181270 1 63.0052 80.4907 72.7144 0.239273 -7.35863
55975 1 75.8416 61.6093 69.3025 0.205082 -6.41155
56024 1 72.7916 64.8785 69.5168 0.201868 -6.75855
180972 1 71.3496 63.0737 71.3785 0.0436833 -6.93094
56222 1 66.5701 78.0324 71.3253 0.351132 -6.98084
61420 1 61.8568 88.2482 77.5545 0.110531 -6.86021
68525 1 77.7688 65.1907 85.3406 0.212211 -6.25643
