ITEM: TIMESTEP
55000
ITEM: NUMBER OF ATOMS
10
ITEM: BOX BOUNDS pp pp pp
0 158.26
0 158.26
0 158.26
ITEM: ATOMS id type x y z c_myKE c_myPE
173122 1 67.9649 39.3982 60.2291 0.102296 -6.63807
170718 1 55.3494 47.5185 60.1926 0.18294 -6.60413
171016 1 50.6258 66.6882 62.0129 0.0722931 -7.09539
183214 1 44.272 45.2657 76.1216 0.238551 -7.1552
188324 1 74.2253 51.9848 82.4795 0.156907 -6.57552
190774 1 74.2852 48.7508 85.7764 0.0634894 -6.78668
48071 1 65.0958 36.3942 59.9137 0.0703933 -6.49082
171017 1 50.5626 68.3929 60.0811 0.278632 -7.57041
63216 1 49.0364 43.9203 81.0048 0.0912016 -7.0057
71381 1 96.8024 87.5319 90.7361 0.153073 -6.47585
