ITEM: TIMESTEP
61000
ITEM: NUMBER OF ATOMS
16
ITEM: BOX BOUNDS pp pp pp
0 158.26
0 158.26
0 158.26
ITEM: ATOMS id type x y z
38423 1 70.4257 57.7649 48.2693
43525 1 76.7561 64.0953 54.5997
45973 1 70.4257 60.9301 57.7649
48373 1 70.4257 54.5997 60.9301
51120 1 60.9301 70.4257 64.0953
74031 1 95.7473 95.7473 92.5821
163322 1 68.8431 53.0171 49.8519
163372 1 68.8431 56.1823 49.8519
163471 1 65.6779 62.5127 49.8519
168373 1 72.0083 56.1823 56.1823
168419 1 59.3475 59.3475 56.1823
168424 1 75.1735 59.3475 56.1823
170770 1 62.5127 49.8519 59.3475
173422 1 68.8431 59.3475 62.5127
173570 1 62.5127 68.8431 62.5127
193979 1 90.9995 94.1647 87.8343
