ITEM: TIMESTEP
62091
ITEM: NUMBER OF ATOMS
14
ITEM: BOX BOUNDS pp pp pp
0 158.26
0 158.26
0 158.26
ITEM: ATOMS id type x y z
38276 1 79.9213 48.2693 48.2693
61078 1 86.2517 67.2605 76.7561
63571 1 64.0953 67.2605 79.9213
65870 1 60.9301 54.5997 83.0865
66072 1 67.2605 67.2605 83.0865
68371 1 64.0953 54.5997 86.2517
68420 1 60.9301 57.7649 86.2517
73383 1 102.078 54.5997 92.5821
75833 1 102.078 51.4345 95.7473
181027 1 84.6691 65.6779 72.0083
183477 1 84.6691 62.5127 75.1735
183527 1 84.6691 65.6779 75.1735
183528 1 87.8343 65.6779 75.1735
201280 1 94.1647 81.5039 97.3299
