ITEM: TIMESTEP
58204
ITEM: NUMBER OF ATOMS
13
ITEM: BOX BOUNDS pp pp pp
0 158.26
0 158.26
0 158.26
ITEM: ATOMS id type x y z
48273 1 70.4257 48.2693 60.9301
48322 1 67.2605 51.4345 60.9301
50773 1 70.4257 48.2693 64.0953
50924 1 73.5909 57.7649 64.0953
50974 1 73.5909 60.9301 64.0953
53672 1 67.2605 73.5909 67.2605
55924 1 73.5909 57.7649 70.4257
58721 1 64.0953 76.7561 73.5909
68723 1 70.4257 76.7561 86.2517
170823 1 72.0083 53.0171 59.3475
173424 1 75.1735 59.3475 62.5127
175877 1 84.6691 56.1823 65.6779
181269 1 59.3475 81.5039 72.0083
