ITEM: TIMESTEP
58230
ITEM: NUMBER OF ATOMS
12
ITEM: BOX BOUNDS pp pp pp
0 158.26
0 158.26
0 158.26
ITEM: ATOMS id type x y z c_myKE c_myPE
183577 1 83.6773 69.7938 76.1679 0 -6.28681
186126 1 80.592 72.8811 77.3973 0 -7.37311
186075 1 80.5916 71.0228 79.2552 0 -7.3733
63626 1 82.4499 72.8806 79.2554 0 -7.37296
36118 1 55.3531 69.3086 43.8713 0 -6.91361
36019 1 56.7338 64.8585 45.8876 0 -6.57003
38617 1 52.0166 69.3829 47.0736 0 -6.60348
170772 1 68.1359 45.809 59.8044 0 -6.25555
53664 1 42.5024 74.6176 68.0474 0 -6.58352
56114 1 42.4969 71.2422 71.4118 0 -6.56507
56165 1 45.8114 74.5569 71.3773 0 -7.51814
83431 1 94.9014 58.5674 106.413 0 -6.25553
