ITEM: TIMESTEP
60184
ITEM: NUMBER OF ATOMS
15
ITEM: BOX BOUNDS pp pp pp
0 158.26
0 158.26
0 158.26
ITEM: ATOMS id type x y z c_myKE c_myPE
163564 1 42.2731 69.7363 48.6431 0 -6.25549
161976 1 82.4985 127.154 47.3996 0 -6.25448
183557 1 20.0203 69.6573 74.0496 0 -6.54692
183606 1 16.7649 72.9139 74.1743 0 -6.82145
66267 1 48.8189 80.4339 82.3279 0 -6.5469
193208 1 23.1313 44.2065 86.9282 0 -6.25364
193984 1 108.014 95.2531 88.8644 0 -6.25411
18520 1 59.8108 64.9545 21.5305 0 -6.25434
21130 1 93.6558 71.3332 26.662 0 -6.25454
176263 1 40.5354 84.4661 65.0754 0 -6.7836
53863 1 37.2973 86.9622 66.5054 0 -7.06296
178862 1 39.1181 86.964 68.3279 0 -7.06624
191266 1 47.0488 82.02 84.0993 0 -6.82732
195819 1 58.5724 52.1903 93.6534 0 -6.25457
83771 1 63.0055 78.9606 106.413 0 -6.25595
