ITEM: TIMESTEP
60184
ITEM: NUMBER OF ATOMS
15
ITEM: BOX BOUNDS pp pp pp
0 158.26
0 158.26
0 158.26
ITEM: ATOMS id type x y z
45919 1 57.7649 57.7649 57.7649
48723 1 70.4257 76.7561 60.9301
48726 1 79.9213 76.7561 60.9301
53675 1 76.7561 73.5909 67.2605
53714 1 41.9389 76.7561 67.2605
53863 1 38.7737 86.2517 67.2605
56164 1 41.9389 73.5909 70.4257
56214 1 41.9389 76.7561 70.4257
61166 1 48.2693 73.5909 76.7561
70916 1 48.2693 57.7649 89.4169
175969 1 59.3475 62.5127 65.6779
176225 1 78.3387 78.3387 65.6779
178569 1 59.3475 68.8431 68.8431
181072 1 68.8431 68.8431 72.0083
190816 1 49.8519 53.0171 84.6691
