ITEM: TIMESTEP
70000
ITEM: NUMBER OF ATOMS
22
ITEM: BOX BOUNDS pp pp pp
0 202.573
0 202.573
0 202.573
ITEM: ATOMS id type x y z c_myKE c_myPE
71213 1 141.184 75.8273 51.5882 0.100874 -6.1573
341239 1 174.949 61.3807 63.3679 0.135949 -6.20055
91056 1 149.214 44.8732 72.8179 0.17415 -6.37903
361637 1 115.246 59.9376 75.6109 0.218389 -6.90564
95524 1 112.525 63.1795 76.21 0.0779527 -7.46856
377967 1 147.119 56.8405 89.7025 0.370697 -6.57432
378648 1 76.031 91.8004 89.9918 0.08188 -6.41532
390363 1 85.4171 61.1264 101.033 0.260395 -7.60826
390417 1 51.7527 64.5483 101.216 0.0824591 -7.42188
58860 1 138.243 74.5882 45.7265 0.487587 -6.5823
63086 1 142.865 78.902 45.7965 0.0923657 -5.35128
63022 1 141.384 75.8567 48.73 0.0739306 -7.59793
63021 1 139.358 77.6285 48.5307 0.116246 -6.76444
87463 1 117.251 70.9737 66.0175 0.159239 -5.91266
92121 1 77.489 100.043 71.0105 0.070943 -6.40249
353508 1 112.67 60.6368 75.1711 0.101295 -6.46616
95523 1 110.754 64.753 74.2114 0.0903893 -7.32587
99190 1 167.954 40.4627 77.7376 0.0449272 -6.65881
124306 1 52.995 68.9692 96.7669 0.014911 -7.15323
132315 1 84.1692 59.4941 102.752 0.387389 -6.75181
132379 1 84.0001 62.6329 103.12 0.234552 -6.91472
141014 1 68.3439 87.0558 109.599 0.600914 -6.88316
