ITEM: TIMESTEP
65000
ITEM: NUMBER OF ATOMS
14
ITEM: BOX BOUNDS pp pp pp
0 202.573
0 202.573
0 202.573
ITEM: ATOMS id type x y z c_myKE c_myPE
338076 1 88.9187 110.881 58.1176 0.045959 -6.4839
341197 1 39.1846 61.5289 61.0647 0.0218232 -6.49386
374816 1 99.6347 104.99 86.6489 0.0394511 -6.86845
382355 1 58.0052 70.7564 92.9836 0.310325 -6.51331
386515 1 57.8346 74.0466 96.3886 0.0957569 -6.95813
128910 1 38.8864 96.4509 99.3592 0.032064 -5.48202
387619 1 109.241 126.902 98.0481 0.0594564 -5.7903
427935 1 96.5533 98.1069 130.248 0.0675597 -6.20218
71774 1 91.5875 106.016 53.0285 0.0594672 -6.76285
71837 1 88.3398 109.454 53.0117 0.118045 -6.68713
107044 1 110.632 26.5415 83.9964 0.175119 -6.78279
112427 1 136.445 90.5775 85.3081 0.137461 -6.83005
112737 1 101.672 103.918 85.0998 0.0249802 -6.03324
160923 1 84.1975 56.4316 125.579 0.151446 -6.33179
