ITEM: TIMESTEP
63439
ITEM: NUMBER OF ATOMS
12
ITEM: BOX BOUNDS pp pp pp
0 202.573
0 202.573
0 202.573
ITEM: ATOMS id type x y z
108059 1 83.0865 76.7561 83.0865
108182 1 67.2605 83.0865 83.0865
111830 1 67.2605 60.9301 86.2517
115925 1 64.0953 60.9301 89.4169
116569 1 76.7561 92.5821 89.4169
124307 1 57.7649 70.4257 95.7473
341389 1 40.3563 72.0083 62.5127
349454 1 43.5215 65.6779 68.8431
362009 1 78.3387 78.3387 78.3387
369937 1 53.0171 65.6779 84.6691
378586 1 81.5039 87.8343 90.9995
378650 1 81.5039 90.9995 90.9995
