ITEM: TIMESTEP
65000
ITEM: NUMBER OF ATOMS
14
ITEM: BOX BOUNDS pp pp pp
0 202.573
0 202.573
0 202.573
ITEM: ATOMS id type x y z
91927 1 70.4257 89.4169 70.4257
99545 1 76.7561 60.9301 76.7561
128285 1 89.4169 64.0953 98.9125
132585 1 127.399 73.5909 102.078
144936 1 124.234 76.7561 111.573
345956 1 113.156 94.1647 65.6779
354070 1 68.8431 90.9995 72.0083
365786 1 81.5039 62.5127 81.5039
386268 1 87.8343 62.5127 97.3299
398823 1 122.652 75.1735 106.826
398886 1 119.486 78.3387 106.826
398951 1 122.652 81.5039 106.826
402918 1 119.486 75.1735 109.991
402983 1 122.652 78.3387 109.991
