ITEM: TIMESTEP
70000
ITEM: NUMBER OF ATOMS
18
ITEM: BOX BOUNDS pp pp pp
0 202.573
0 202.573
0 202.573
ITEM: ATOMS id type x y z
75807 1 95.7473 102.078 57.7649
95903 1 95.7473 83.0865 73.5909
96032 1 98.9125 89.4169 73.5909
96290 1 105.243 102.078 73.5909
96291 1 108.408 102.078 73.5909
104096 1 98.9125 83.0865 79.9213
104669 1 89.4169 111.573 79.9213
108319 1 95.7473 89.4169 83.0865
345950 1 94.1647 94.1647 65.6779
345952 1 100.495 94.1647 65.6779
350048 1 100.495 94.1647 68.8431
350428 1 87.8343 113.156 68.8431
362207 1 97.3299 87.8343 78.3387
362385 1 53.0171 97.3299 78.3387
365985 1 103.66 72.0083 81.5039
370716 1 87.8343 103.66 84.6691
374865 1 53.0171 106.826 87.8343
387220 1 62.5127 109.991 97.3299
