ITEM: TIMESTEP
64126
ITEM: NUMBER OF ATOMS
15
ITEM: BOX BOUNDS pp pp pp
0 202.573
0 202.573
0 202.573
ITEM: ATOMS id type x y z
96025 1 76.7561 89.4169 73.5909
112027 1 83.0865 70.4257 86.2517
116251 1 83.0865 76.7561 89.4169
140951 1 70.4257 83.0865 108.408
157019 1 83.0865 67.2605 121.069
161370 1 79.9213 79.9213 124.234
210392 1 73.5909 73.5909 162.216
214488 1 73.5909 73.5909 165.382
357783 1 72.0083 72.0083 75.1735
370012 1 87.8343 68.8431 84.6691
370135 1 72.0083 75.1735 84.6691
414935 1 72.0083 62.5127 119.486
419033 1 78.3387 62.5127 122.652
423129 1 78.3387 62.5127 125.817
464344 1 75.1735 75.1735 157.469
