ITEM: TIMESTEP
67175
ITEM: NUMBER OF ATOMS
13
ITEM: BOX BOUNDS pp pp pp
0 202.573
0 202.573
0 202.573
ITEM: ATOMS id type x y z c_myKE c_myPE
370020 1 115.474 69.5668 83.5656 0 -6.25471
415131 1 86.7798 69.5462 118.657 0 -6.82559
419165 1 90.035 69.6652 121.907 0 -6.54606
67334 1 16.9428 88.3622 50.0703 0 -6.25515
86933 1 64.7937 43.6972 66.0255 0 -6.25478
92110 1 40.5902 99.7938 69.0909 0 -6.54808
92173 1 37.3348 103.05 69.2182 0 -6.82062
99411 1 56.4629 55.2131 75.5883 0 -6.25127
140309 1 67.8663 49.985 109.347 0 -6.57365
144407 1 71.1753 50.029 112.672 0 -7.52336
144470 1 67.8657 53.3528 112.713 0 -6.57216
173722 1 80.9498 82.1013 133.193 0 -6.42141
177883 1 81.7651 83.7856 137.95 0 -6.41766
