ITEM: TIMESTEP
71226
ITEM: NUMBER OF ATOMS
17
ITEM: BOX BOUNDS pp pp pp
0 202.573
0 202.573
0 202.573
ITEM: ATOMS id type x y z
99873 1 102.078 76.7561 76.7561
103389 1 89.4169 48.2693 79.9213
103838 1 92.5821 70.4257 79.9213
107872 1 98.9125 67.2605 83.0865
107936 1 98.9125 70.4257 83.0865
111837 1 89.4169 60.9301 86.2517
111970 1 105.243 67.2605 86.2517
112157 1 89.4169 76.7561 86.2517
124634 1 79.9213 86.2517 95.7473
349870 1 144.808 84.6691 68.8431
349992 1 125.817 90.9995 68.8431
354592 1 100.495 116.321 72.0083
361632 1 100.495 59.3475 78.3387
362397 1 90.9995 97.3299 78.3387
365849 1 78.3387 65.6779 81.5039
386845 1 90.9995 90.9995 97.3299
390814 1 94.1647 84.6691 100.495
