ITEM: TIMESTEP
67000
ITEM: NUMBER OF ATOMS
27
ITEM: BOX BOUNDS pp pp pp
0 202.573
0 202.573
0 202.573
ITEM: ATOMS id type x y z
63586 1 105.243 105.243 48.2693
83550 1 92.5821 79.9213 64.0953
87645 1 89.4169 79.9213 67.2605
100259 1 108.408 95.7473 76.7561
104293 1 114.738 92.5821 79.9213
104356 1 111.573 95.7473 79.9213
108453 1 114.738 95.7473 83.0865
133409 1 102.078 114.738 102.078
136615 1 121.069 70.4257 105.243
136990 1 92.5821 89.4169 105.243
145235 1 57.7649 92.5821 111.573
329054 1 94.1647 68.8431 53.0171
329119 1 97.3299 72.0083 53.0171
329760 1 100.495 103.66 53.0171
330282 1 132.147 128.982 53.0171
358056 1 125.817 84.6691 75.1735
358243 1 109.991 94.1647 75.1735
371361 1 103.66 135.312 84.6691
390953 1 128.982 90.9995 100.495
391016 1 125.817 94.1647 100.495
395038 1 94.1647 90.9995 103.66
395113 1 128.982 94.1647 103.66
399069 1 90.9995 87.8343 106.826
399135 1 97.3299 90.9995 106.826
403115 1 135.312 84.6691 109.991
403167 1 97.3299 87.8343 109.991
439328 1 100.495 53.0171 138.478
