ITEM: TIMESTEP
61180
ITEM: NUMBER OF ATOMS
14
ITEM: BOX BOUNDS pp pp pp
0 202.573
0 202.573
0 202.573
ITEM: ATOMS id type x y z
104088 1 73.5909 83.0865 79.9213
108058 1 79.9213 76.7561 83.0865
112026 1 79.9213 70.4257 86.2517
115798 1 67.2605 54.5997 89.4169
116250 1 79.9213 76.7561 89.4169
120089 1 76.7561 64.0953 92.5821
120409 1 76.7561 79.9213 92.5821
128536 1 73.5909 76.7561 98.9125
350042 1 81.5039 94.1647 68.8431
362011 1 84.6691 78.3387 78.3387
374677 1 65.6779 97.3299 87.8343
382170 1 81.5039 62.5127 94.1647
382425 1 78.3387 75.1735 94.1647
398996 1 62.5127 84.6691 106.826
