ITEM: TIMESTEP
65000
ITEM: NUMBER OF ATOMS
16
ITEM: BOX BOUNDS pp pp pp
0 202.573
0 202.573
0 202.573
ITEM: ATOMS id type x y z c_myKE c_myPE
356893 1 91.7088 26.0862 74.0628 0.276249 -6.40885
359125 1 64.4579 139.905 74.2514 0.121384 -6.5917
107937 1 102.784 67.6943 83.8551 0.158119 -6.52531
120667 1 78.9613 90.1266 91.7585 0.272175 -5.89927
386204 1 86.6407 59.9205 94.9485 0.144463 -6.50547
317509 1 11.6527 107.648 42.0425 0.151344 -5.57802
60342 1 170.057 147.784 43.4164 0.176168 -6.65789
66711 1 68.9528 58.1181 50.172 0.0500086 -6.09755
94813 1 90.1035 28.0204 72.3224 0.378385 -6.96722
95886 1 40.3405 83.9246 74.1879 0.19194 -6.95266
95949 1 37.1778 86.6548 74.2068 0.0282896 -6.77697
101141 1 62.6555 141.478 75.5695 0.182538 -7.14812
108631 1 69.0522 106.266 81.8484 0.0826439 -6.39384
145514 1 131.966 104.16 112.63 0.0537354 -6.00133
161884 1 85.278 106.3 125.622 0.110118 -6.03541
203171 1 107.54 120.58 155.235 0.023863 -5.90835
