ITEM: TIMESTEP
71000
ITEM: NUMBER OF ATOMS
22
ITEM: BOX BOUNDS pp pp pp
0 202.573
0 202.573
0 202.573
ITEM: ATOMS id type x y z
105122 1 105.243 133.73 79.9213
108766 1 92.5821 111.573 83.0865
112921 1 76.7561 114.738 86.2517
117154 1 105.243 121.069 89.4169
117155 1 108.408 121.069 89.4169
121251 1 108.408 121.069 92.5821
125597 1 89.4169 133.73 95.7473
129183 1 95.7473 108.408 98.9125
129375 1 95.7473 117.904 98.9125
133467 1 83.0865 117.904 102.078
146403 1 108.408 149.556 111.573
370134 1 68.8431 75.1735 84.6691
375260 1 87.8343 125.817 87.8343
379166 1 94.1647 116.321 90.9995
379356 1 87.8343 125.817 90.9995
383071 1 97.3299 106.826 94.1647
383263 1 97.3299 116.321 94.1647
387678 1 94.1647 132.147 97.3299
391516 1 87.8343 119.486 100.495
399644 1 87.8343 116.321 106.826
399706 1 81.5039 119.486 106.826
399968 1 100.495 132.147 106.826
