ITEM: TIMESTEP
71160
ITEM: NUMBER OF ATOMS
23
ITEM: BOX BOUNDS pp pp pp
0 202.573
0 202.573
0 202.573
ITEM: ATOMS id type x y z
71387 1 83.0865 86.2517 54.5997
96935 1 121.069 133.73 73.5909
112348 1 86.2517 86.2517 86.2517
133924 1 111.573 140.06 102.078
150168 1 73.5909 133.73 114.738
150298 1 79.9213 140.06 114.738
154330 1 79.9213 136.895 117.904
154393 1 76.7561 140.06 117.904
158425 1 76.7561 136.895 121.069
337890 1 106.826 100.495 59.3475
354005 1 65.6779 87.8343 72.0083
354142 1 94.1647 94.1647 72.0083
358174 1 94.1647 90.9995 75.1735
358239 1 97.3299 94.1647 75.1735
362334 1 94.1647 94.1647 78.3387
362399 1 97.3299 97.3299 78.3387
366494 1 94.1647 97.3299 81.5039
403808 1 100.495 119.486 109.991
404387 1 109.991 147.973 109.991
404450 1 106.826 151.138 109.991
407903 1 97.3299 119.486 113.156
407968 1 100.495 122.652 113.156
408547 1 109.991 151.138 113.156
