ITEM: TIMESTEP
69000
ITEM: NUMBER OF ATOMS
17
ITEM: BOX BOUNDS pp pp pp
0 202.573
0 202.573
0 202.573
ITEM: ATOMS id type x y z c_myKE c_myPE
337694 1 94.9914 91.9151 57.0796 0.0126452 -5.99308
378337 1 104.354 75.9402 91.681 0.0171416 -6.39293
398550 1 69.4177 63.1708 107.694 0.0573164 -6.53097
144667 1 82.7977 63.0259 107.821 0.437949 -6.81186
173518 1 42.0543 74.015 131.564 0.295354 -7.95489
177679 1 42.1492 75.5812 133.569 0.274236 -6.8637
178570 1 26.2157 121.829 138.263 0.064679 -6.16869
99791 1 45.6484 74.0907 77.3359 0.0876258 -5.88024
128161 1 101.142 56.5261 97.8528 0.220755 -7.25071
390305 1 104.46 59.9357 97.7508 0.399955 -7.23346
390364 1 88.4959 59.4999 101.085 0.160963 -6.96099
136412 1 85.2625 59.5852 104.425 0.103408 -7.72664
140509 1 88.6131 59.8468 107.33 0.274991 -6.33982
136539 1 85.3513 62.6904 107.8 0.113974 -6.89699
149134 1 40.915 84.2136 113.981 0.417283 -6.89017
153230 1 40.3383 83.9474 116.887 0.0214105 -6.92829
149198 1 42.4449 85.2311 115.891 0.0156123 -7.23947
