ITEM: TIMESTEP
70125
ITEM: NUMBER OF ATOMS
23
ITEM: BOX BOUNDS pp pp pp
0 202.573
0 202.573
0 202.573
ITEM: ATOMS id type x y z c_myKE c_myPE
292452 1 114.235 82.3492 24.9695 0 -7.12306
296549 1 117.306 82.1097 27.9438 0 -7.03069
296612 1 114.015 85.446 27.9345 0 -7.00565
300834 1 107.782 88.7119 31.2878 0 -7.45048
308961 1 104.722 88.6031 34.506 0 -8.0001
46882 1 107.847 88.6635 34.4641 0 -8.12255
309026 1 107.693 91.9175 34.323 0 -7.83244
313057 1 104.723 88.5658 37.6055 0 -7.69047
55139 1 104.506 91.9455 37.485 0 -7.72089
309150 1 93.0279 96.3019 37.6819 0 -6.8392
312478 1 95.083 59.983 40.8837 0 -6.26377
358557 1 89.9604 109.094 74.0194 0 -6.25622
386277 1 115.625 61.1093 96.4875 0 -6.63923
38565 1 115.626 83.7498 29.8596 0 -7.26523
42787 1 109.502 87.2599 32.829 0 -7.43362
46123 1 134.951 52.0426 36.0884 0 -6.25687
46819 1 106.197 86.8727 35.9438 0 -7.54854
309213 1 91.4422 98.0818 35.9112 0 -6.54721
50978 1 102.893 90.1785 39.183 0 -7.15382
112938 1 131.785 113.891 87.1335 0 -6.25538
124196 1 110.655 62.8145 91.47 0 -7.622
120100 1 112.623 64.774 90.41 0 -6.93917
124197 1 113.956 62.5978 94.8133 0 -7.12748
