ITEM: TIMESTEP
69145
ITEM: NUMBER OF ATOMS
13
ITEM: BOX BOUNDS pp pp pp
0 202.573
0 202.573
0 202.573
ITEM: ATOMS id type x y z c_myKE c_myPE
362323 1 58.0564 93.1601 79.1423 0 -6.25359
381904 1 48.6457 48.6596 95.2078 0 -6.54281
390609 1 50.5131 74.06 101.398 0 -6.27919
402831 1 45.1801 72.6143 109.261 0 -6.54755
431697 1 54.8658 80.3991 130.188 0 -6.25574
427723 1 34.4782 88.7266 130.184 0 -6.25627
177824 1 99.5259 80.3898 137.806 0 -6.25494
460634 1 82.3336 93.1535 155.701 0 -6.25599
373662 1 88.3592 48.8379 87.1182 0 -6.25579
119760 1 46.8745 46.8888 93.6238 0 -6.82353
140752 1 46.7554 74.3863 107.494 0 -6.8463
403406 1 45.6444 101.143 110.695 0 -6.25609
152208 1 48.8423 34.1406 119.022 0 -6.25529
