ITEM: TIMESTEP
73231
ITEM: NUMBER OF ATOMS
34
ITEM: BOX BOUNDS pp pp pp
0 202.573
0 202.573
0 202.573
ITEM: ATOMS id type x y z
79702 1 67.2605 92.5821 60.9301
99690 1 130.564 67.2605 76.7561
120217 1 76.7561 70.4257 92.5821
120280 1 73.5909 73.5909 92.5821
120281 1 76.7561 73.5909 92.5821
120346 1 79.9213 76.7561 92.5821
124507 1 83.0865 79.9213 95.7473
132372 1 60.9301 64.0953 102.078
142309 1 114.738 149.556 108.408
170010 1 79.9213 102.078 130.564
174629 1 114.738 127.399 133.73
174692 1 111.573 130.564 133.73
211557 1 114.738 130.564 162.216
244537 1 178.042 140.06 187.538
253608 1 124.234 184.373 193.868
366290 1 56.1823 87.8343 81.5039
370322 1 56.1823 84.6691 84.6691
378328 1 75.1735 75.1735 90.9995
382638 1 144.808 84.6691 94.1647
390420 1 62.5127 65.6779 100.495
394075 1 84.6691 43.5215 103.66
420450 1 106.826 132.147 122.652
435480 1 75.1735 65.6779 135.312
461620 1 163.799 141.643 154.304
461683 1 160.634 144.808 154.304
465715 1 160.634 141.643 157.469
465778 1 157.469 144.808 157.469
465779 1 160.634 144.808 157.469
465780 1 163.799 144.808 157.469
465843 1 160.634 147.973 157.469
469875 1 160.634 144.808 160.634
477547 1 135.312 119.486 166.964
502190 1 144.808 122.652 185.956
502253 1 141.643 125.817 185.956
