ITEM: TIMESTEP
66000
ITEM: NUMBER OF ATOMS
19
ITEM: BOX BOUNDS pp pp pp
0 202.573
0 202.573
0 202.573
ITEM: ATOMS id type x y z c_myKE c_myPE
357337 1 79.1686 48.5055 73.1271 0.0566009 -6.29153
357727 1 94.9183 72.702 76.9914 0.0880849 -6.39672
371158 1 67.2467 126.889 85.36 0.269075 -8.88438
371159 1 70.585 126.772 85.6027 0.0247963 -7.25668
375319 1 70.6728 130.126 88.5003 0.0639506 -6.93253
381322 1 29.2113 21.8704 95.2302 0.187282 -6.63615
386774 1 67.5275 86.7374 97.9055 0.0688746 -6.56225
386838 1 67.4314 89.9996 98.5049 0.117851 -7.35314
394903 1 69.3903 85.5809 102.897 0.159551 -7.44862
136982 1 67.7477 86.9086 104.434 0.123707 -6.87125
418702 1 43.652 47.2163 121.811 0.0752477 -6.03285
357470 1 91.6162 55.0775 72.108 0.285059 -6.58979
109079 1 69.0576 128.186 83.8545 0.0275744 -6.86021
112424 1 125.28 88.2329 86.8733 0.0172138 -6.13547
124694 1 65.7631 88.4735 96.5428 0.0308544 -7.17886
132824 1 71.2595 83.7982 101.239 0.0376465 -6.97539
128727 1 67.9287 87.0524 101.041 0.0471414 -7.7806
132888 1 69.0973 91.3664 99.9051 0.0600071 -7.55464
133655 1 69.167 129.995 99.7015 0.254806 -6.12717
