ITEM: TIMESTEP
63235
ITEM: NUMBER OF ATOMS
15
ITEM: BOX BOUNDS pp pp pp
0 202.573
0 202.573
0 202.573
ITEM: ATOMS id type x y z
95962 1 79.9213 86.2517 73.5909
103965 1 89.4169 76.7561 79.9213
108061 1 89.4169 76.7561 83.0865
108254 1 92.5821 86.2517 83.0865
141215 1 95.7473 95.7473 108.408
141216 1 98.9125 95.7473 108.408
145246 1 92.5821 92.5821 111.573
340895 1 97.3299 46.6867 62.5127
357788 1 87.8343 72.0083 75.1735
362267 1 84.6691 90.9995 78.3387
365983 1 97.3299 72.0083 81.5039
366237 1 90.9995 84.6691 81.5039
374044 1 87.8343 65.6779 87.8343
378269 1 90.9995 72.0083 90.9995
399516 1 87.8343 109.991 106.826
