ITEM: TIMESTEP
65121
ITEM: NUMBER OF ATOMS
16
ITEM: BOX BOUNDS pp pp pp
0 202.573
0 202.573
0 202.573
ITEM: ATOMS id type x y z c_myKE c_myPE
354090 1 131.484 91.9079 70.7865 0 -6.85047
362218 1 131.374 88.7948 73.9278 0 -6.67221
100199 1 124.17 90.2898 78.9114 0 -7.87256
366374 1 122.263 92.171 78.8936 0 -7.52878
104356 1 118.671 92.0045 82.2295 0 -7.49169
391718 1 120.603 130.175 99.5561 0 -6.82361
395813 1 117.344 130.307 102.81 0 -6.55412
66720 1 97.942 58.3887 50.0775 0 -6.82363
332960 1 101.202 58.5116 53.3321 0 -6.54574
92457 1 128.594 115.833 69.2231 0 -6.25612
353245 1 90.2735 52.0138 72.4315 0 -6.83242
95262 1 91.5774 50.0732 74.3367 0 -6.82126
104102 1 118.939 83.7134 80.814 0 -6.64216
108327 1 122.36 86.8003 80.6678 0 -7.53144
366244 1 119.212 87.0391 84.4564 0 -7.37687
149864 1 123.448 117.07 113.908 0 -6.26237
