ITEM: TIMESTEP
70000
ITEM: NUMBER OF ATOMS
14
ITEM: BOX BOUNDS pp pp pp
0 202.573
0 202.573
0 202.573
ITEM: ATOMS id type x y z c_myKE c_myPE
99730 1 56.6068 69.6103 76.6147 0.115674 -6.95605
365842 1 54.8328 64.559 80.428 0.15946 -7.57341
116051 1 58.31 64.2378 87.067 0.108012 -7.24839
374100 1 60.9624 67.6922 86.4218 0.108195 -7.19911
127960 1 72.6121 50.2315 96.3092 0.22767 -6.34154
136734 1 90.0533 72.4269 102.727 0.187325 -6.86092
132577 1 93.7598 76.4673 102.453 0.0734579 -6.43163
398305 1 104.529 50.2542 106.032 0.550099 -8.62175
107923 1 58.2692 68.1855 80.854 0.241615 -7.25598
111892 1 59.6053 62.6854 85.3026 0.179102 -7.54464
112471 1 69.266 91.4711 87.0104 0.0611502 -6.52836
124444 1 90.095 74.108 100.8 0.27506 -7.21888
136162 1 106.37 48.9778 104.416 0.118889 -7.39305
165595 1 82.1971 86.9584 126.656 0.171636 -6.24207
