ITEM: TIMESTEP
68210
ITEM: NUMBER OF ATOMS
25
ITEM: BOX BOUNDS pp pp pp
0 202.573
0 202.573
0 202.573
ITEM: ATOMS id type x y z c_myKE c_myPE
337361 1 51.6754 74.0074 58.0528 0 -6.2556
362189 1 40.8565 88.7134 77.1991 0 -6.82181
366284 1 37.5976 88.8356 80.4533 0 -6.54398
381902 1 42.0875 48.3626 93.1277 0 -6.82884
398986 1 29.335 83.5867 107.833 0 -6.25629
427019 1 32.5374 53.6269 128.237 0 -6.2567
435596 1 39.0023 72.7885 134.61 0 -6.91102
431568 1 50.5822 77.0553 133.742 0 -6.80861
435925 1 64.4376 88.7151 134.613 0 -6.25668
439692 1 37.4956 70.993 136.388 0 -7.12083
177681 1 52.0015 73.8127 136.246 0 -7.06992
435729 1 53.8219 75.6345 136.244 0 -7.06918
452568 1 74.0054 99.518 149.31 0 -6.2639
460822 1 69.5945 104.651 155.676 0 -6.25648
116104 1 20.2588 71.3056 90.665 0 -6.77781
123855 1 43.8579 46.7812 94.8986 0 -6.54387
382408 1 23.4948 72.7213 93.1799 0 -7.06855
120264 1 21.6758 74.5451 93.1781 0 -7.06766
124434 1 53.277 75.6118 94.7327 0 -6.25672
128986 1 78.8751 99.8235 99.7946 0 -6.67728
129049 1 75.6185 103.062 100.003 0 -7.00142
137113 1 75.8472 97.1745 104.4 0 -6.82598
133081 1 75.557 99.9677 103.111 0 -7.52502
133146 1 78.6665 103.063 103.049 0 -7.00355
439564 1 37.1794 67.8608 139.514 0 -6.64474
