ITEM: TIMESTEP
64213
ITEM: NUMBER OF ATOMS
13
ITEM: BOX BOUNDS pp pp pp
0 202.573
0 202.573
0 202.573
ITEM: ATOMS id type x y z c_myKE c_myPE
366928 1 48.4646 120.617 80.3856 0 -6.25459
369622 1 67.5975 48.4732 83.4485 0 -6.8252
382673 1 51.8401 88.4736 93.2533 0 -7.01502
386770 1 54.8146 88.7288 96.3204 0 -7.06898
386833 1 51.8387 91.7969 96.5847 0 -7.01336
411987 1 58.051 120.619 117.421 0 -6.25605
423309 1 38.9126 72.7732 126.992 0 -6.2554
70741 1 62.8276 55.2227 53.2646 0 -6.25559
107543 1 69.3688 50.2439 81.8641 0 -6.54425
111581 1 87.1045 45.6468 85.1627 0 -6.25508
124689 1 49.9171 90.1184 94.9367 0 -7.24392
133476 1 112.626 117.071 101.105 0 -6.25562
148520 1 123.442 52.0255 113.867 0 -6.25537
