ITEM: TIMESTEP
64213
ITEM: NUMBER OF ATOMS
13
ITEM: BOX BOUNDS pp pp pp
0 202.573
0 202.573
0 202.573
ITEM: ATOMS id type x y z
112085 1 64.0953 73.5909 86.2517
112350 1 92.5821 86.2517 86.2517
112412 1 86.2517 89.4169 86.2517
124757 1 64.0953 92.5821 95.7473
125082 1 79.9213 108.408 95.7473
128924 1 86.2517 95.7473 98.9125
133020 1 86.2517 95.7473 102.078
136792 1 73.5909 79.9213 105.243
357784 1 75.1735 72.0083 75.1735
370582 1 68.8431 97.3299 84.6691
386910 1 94.1647 94.1647 97.3299
390550 1 68.8431 72.0083 100.495
390746 1 81.5039 81.5039 100.495
