ITEM: TIMESTEP
70179
ITEM: NUMBER OF ATOMS
17
ITEM: BOX BOUNDS pp pp pp
0 202.573
0 202.573
0 202.573
ITEM: ATOMS id type x y z
75481 1 76.7561 86.2517 57.7649
124762 1 79.9213 92.5821 95.7473
124826 1 79.9213 95.7473 95.7473
124890 1 79.9213 98.9125 95.7473
133349 1 114.738 111.573 102.078
133414 1 117.904 114.738 102.078
145568 1 98.9125 108.408 111.573
308702 1 94.1647 75.1735 37.1911
308765 1 90.9995 78.3387 37.1911
333529 1 78.3387 87.8343 56.1823
337626 1 81.5039 87.8343 59.3475
337689 1 78.3387 90.9995 59.3475
378714 1 81.5039 94.1647 90.9995
382874 1 81.5039 97.3299 94.1647
386905 1 78.3387 94.1647 97.3299
403616 1 100.495 109.991 109.991
484694 1 68.8431 68.8431 173.295
