ITEM: TIMESTEP
71189
ITEM: NUMBER OF ATOMS
33
ITEM: BOX BOUNDS pp pp pp
0 202.573
0 202.573
0 202.573
ITEM: ATOMS id type x y z c_myKE c_myPE
346397 1 90.386 115.743 64.138 0 -7.86916
350493 1 92.2958 115.684 66.0168 0 -7.94399
350364 1 85.0321 112.098 69.4999 0 -8.1527
88347 1 83.2666 114.024 69.232 0 -8.03118
96539 1 85.1377 115.756 73.0233 0 -8.01662
367388 1 89.0668 142.916 82.3234 0 -6.64444
121371 1 82.4447 128.239 89.9839 0 -6.99789
121436 1 85.5108 131.305 89.9853 0 -6.99199
125532 1 85.5043 128.239 93.0508 0 -6.98261
117339 1 82.2428 131.512 93.2531 0 -6.71273
399846 1 120.635 126.991 107.845 0 -6.26297
412133 1 117.413 125.059 117.508 0 -6.91493
412196 1 114.073 128.248 117.418 0 -6.60638
416293 1 117.412 128.152 120.605 0 -6.91187
457112 1 75.9533 123.983 152.554 0 -7.06946
88411 1 83.6675 117.184 65.0949 0 -6.68442
84316 1 87.0028 119.78 64.6033 0 -6.96177
88285 1 88.6629 110.259 67.7261 0 -7.99624
92381 1 90.5606 113.976 69.5989 0 -8.12873
354586 1 81.3577 114.067 71.0056 0 -7.57203
96604 1 86.8643 119.488 71.0188 0 -7.56099
99875 1 109.455 75.5878 75.5983 0 -6.25423
109470 1 91.3848 146.28 83.7575 0 -7.86009
113567 1 94.7382 148.627 85.1646 0 -6.63455
119968 1 97.9376 56.4525 91.5518 0 -6.25604
126121 1 126.647 160.482 97.9371 0 -6.2556
128275 1 56.4765 62.8432 99.8608 0 -6.82157
128340 1 59.7332 66.0983 99.989 0 -6.5494
157589 1 62.8439 94.7271 122.198 0 -6.25507
158563 1 107.504 142.594 122.211 0 -6.25638
191000 1 74.2928 128.706 147.593 0 -6.70133
195032 1 74.0621 125.409 150.75 0 -6.78243
195097 1 77.5625 128.592 151.017 0 -7.63677
