ITEM: TIMESTEP
68000
ITEM: NUMBER OF ATOMS
19
ITEM: BOX BOUNDS pp pp pp
0 202.573
0 202.573
0 202.573
ITEM: ATOMS id type x y z
99931 1 83.0865 79.9213 76.7561
116313 1 76.7561 79.9213 89.4169
120347 1 83.0865 76.7561 92.5821
128149 1 64.0953 57.7649 98.9125
161877 1 64.0953 105.243 124.234
161943 1 70.4257 108.408 124.234
182167 1 70.4257 95.7473 140.06
365916 1 87.8343 68.8431 81.5039
366170 1 81.5039 81.5039 81.5039
370392 1 75.1735 87.8343 84.6691
374229 1 65.6779 75.1735 87.8343
374295 1 72.0083 78.3387 87.8343
374297 1 78.3387 78.3387 87.8343
374300 1 87.8343 78.3387 87.8343
386776 1 75.1735 87.8343 97.3299
415888 1 49.8519 109.991 119.486
420113 1 53.0171 116.321 122.652
423956 1 62.5127 103.66 125.817
444305 1 53.0171 97.3299 141.643
