ITEM: TIMESTEP
68143
ITEM: NUMBER OF ATOMS
25
ITEM: BOX BOUNDS pp pp pp
0 202.573
0 202.573
0 202.573
ITEM: ATOMS id type x y z
103767 1 70.4257 67.2605 79.9213
108004 1 111.573 73.5909 83.0865
116183 1 70.4257 73.5909 89.4169
116830 1 92.5821 105.243 89.4169
120291 1 108.408 73.5909 92.5821
120550 1 117.904 86.2517 92.5821
124312 1 73.5909 70.4257 95.7473
124698 1 79.9213 89.4169 95.7473
128408 1 73.5909 70.4257 98.9125
144793 1 76.7561 70.4257 111.573
157078 1 67.2605 70.4257 121.069
157272 1 73.5909 79.9213 121.069
382488 1 75.1735 78.3387 94.1647
394967 1 72.0083 87.8343 103.66
403033 1 78.3387 81.5039 109.991
403224 1 75.1735 90.9995 109.991
407259 1 84.6691 87.8343 113.156
407387 1 84.6691 94.1647 113.156
411096 1 75.1735 75.1735 116.321
411160 1 75.1735 78.3387 116.321
411161 1 78.3387 78.3387 116.321
411353 1 78.3387 87.8343 116.321
411604 1 62.5127 100.495 116.321
415382 1 68.8431 84.6691 119.486
423509 1 65.6779 81.5039 125.817
