ITEM: TIMESTEP
74022
ITEM: NUMBER OF ATOMS
15
ITEM: BOX BOUNDS pp pp pp
0 202.573
0 202.573
0 202.573
ITEM: ATOMS id type x y z c_myKE c_myPE
366044 1 88.6952 74.0139 82.3199 0 -6.82063
366107 1 85.4397 77.2696 82.4458 0 -6.54777
386021 1 117.42 48.4817 98.2815 0 -6.25363
399719 1 123.911 120.622 105.873 0 -6.82363
415770 1 80.2414 104.505 120.554 0 -7.06949
166250 1 133.261 118.831 126.739 0 -7.01465
424361 1 130.189 121.797 127.004 0 -7.06972
428393 1 129.941 118.836 130.088 0 -7.01206
185371 1 82.3334 50.4318 146.126 0 -6.25422
96095 1 96.6852 91.547 71.1625 0 -6.25617
141672 1 125.499 118.849 107.642 0 -6.54114
157723 1 82.0139 103.134 122.294 0 -7.03789
157787 1 81.7212 106.161 122.078 0 -6.8679
432427 1 133.004 115.856 129.809 0 -7.07468
215089 1 154.106 101.112 166.86 0 -6.25358
