ITEM: TIMESTEP
64000
ITEM: NUMBER OF ATOMS
9
ITEM: BOX BOUNDS pp pp pp
0 202.573
0 202.573
0 202.573
ITEM: ATOMS id type x y z c_myKE c_myPE
349980 1 86.5472 90.3509 67.8387 0.547153 -6.26105
353299 1 57.8652 51.675 73.0711 0.0349664 -7.06328
357973 1 64.4285 82.3856 74.106 0.082143 -6.58717
357331 1 57.9402 48.5536 76.0915 0.183296 -7.22785
83676 1 85.2363 85.4915 62.7788 0.343334 -6.60763
112094 1 93.4759 74.2471 85.1248 0.089241 -6.6758
116002 1 106.37 65.1835 88.2502 0.250899 -7.02629
144862 1 91.3722 72.267 110.393 0.0908754 -6.83925
210400 1 99.8625 74.1884 163.833 0.0414603 -6.24167
