ITEM: TIMESTEP
67000
ITEM: NUMBER OF ATOMS
24
ITEM: BOX BOUNDS pp pp pp
0 202.573
0 202.573
0 202.573
ITEM: ATOMS id type x y z c_myKE c_myPE
321378 1 107.867 92.6169 47.1649 0.0876395 -6.43632
341016 1 76.0385 53.5018 61.7189 0.0918149 -5.32548
345248 1 101.36 57.9885 67.7653 0.267217 -5.92654
91865 1 75.7732 86.843 72.7258 0.384806 -6.5448
96027 1 78.8776 86.7152 75.8246 0.0540423 -6.61497
104662 1 64.5237 111.179 80.558 0.0494638 -6.20997
393803 1 34.4023 29.6103 104.55 0.0745612 -6.11761
398220 1 35.6605 45.183 105.79 0.0979417 -7.48382
401620 1 61.1622 8.91946 109.118 0.130293 -6.73958
422229 1 66.2799 16.4961 126.958 0.134686 -5.85257
431055 1 47.4166 48.5289 133.37 0.138128 -6.76872
435025 1 53.4013 41.9381 136.499 0.147264 -7.24602
337231 1 43.5259 69.1172 58.7317 0.242699 -6.94018
79695 1 43.7392 91.669 59.7016 0.266922 -6.71975
95381 1 63.0829 55.7172 72.1324 0.0962993 -6.7403
127441 1 50.0832 21.2931 99.8063 0.288753 -6.0902
132044 1 34.1275 46.786 101.369 0.0922128 -7.49468
132045 1 37.319 46.9709 101.24 0.162262 -7.68883
132109 1 37.2608 50.073 101.19 0.158695 -6.86037
136077 1 37.1245 43.3443 104.46 0.179826 -7.62266
136141 1 37.2486 46.8428 104.435 0.0157756 -7.53888
136142 1 40.5745 46.7374 104.355 0.227155 -7.8189
136204 1 34.0404 50.1192 104.626 0.0424454 -7.19487
140364 1 33.7953 53.2202 107.469 0.144912 -6.63714
