ITEM: TIMESTEP
65000
ITEM: NUMBER OF ATOMS
17
ITEM: BOX BOUNDS pp pp pp
0 202.573
0 202.573
0 202.573
ITEM: ATOMS id type x y z
112149 1 64.0953 76.7561 86.2517
124379 1 83.0865 73.5909 95.7473
128666 1 79.9213 83.0865 98.9125
132825 1 76.7561 86.2517 102.078
361883 1 84.6691 72.0083 78.3387
374107 1 84.6691 68.8431 87.8343
378459 1 84.6691 81.5039 90.9995
386457 1 78.3387 72.0083 97.3299
386587 1 84.6691 78.3387 97.3299
386651 1 84.6691 81.5039 97.3299
390555 1 84.6691 72.0083 100.495
390683 1 84.6691 78.3387 100.495
390744 1 75.1735 81.5039 100.495
390745 1 78.3387 81.5039 100.495
394713 1 78.3387 75.1735 103.66
398877 1 90.9995 78.3387 106.826
407070 1 94.1647 78.3387 113.156
