ITEM: TIMESTEP
70000
ITEM: NUMBER OF ATOMS
22
ITEM: BOX BOUNDS pp pp pp
0 202.573
0 202.573
0 202.573
ITEM: ATOMS id type x y z
111318 1 67.2605 35.6085 86.2517
144349 1 89.4169 48.2693 111.573
148381 1 89.4169 45.1041 114.738
148445 1 89.4169 48.2693 114.738
148446 1 92.5821 48.2693 114.738
149402 1 79.9213 95.7473 114.738
156808 1 22.9477 57.7649 121.069
157346 1 105.243 83.0865 121.069
169371 1 83.0865 70.4257 130.564
173468 1 86.2517 70.4257 133.73
198410 1 29.2781 89.4169 152.721
357404 1 87.8343 53.0171 75.1735
382495 1 97.3299 78.3387 94.1647
390104 1 75.1735 49.8519 100.495
390368 1 100.495 62.5127 100.495
402268 1 87.8343 43.5215 109.991
402331 1 84.6691 46.6867 109.991
410589 1 90.9995 49.8519 116.321
411482 1 81.5039 94.1647 116.321
415395 1 109.991 84.6691 119.486
427171 1 109.991 59.3475 128.982
436821 1 65.6779 132.147 135.312
