ITEM: TIMESTEP
67000
ITEM: NUMBER OF ATOMS
14
ITEM: BOX BOUNDS pp pp pp
0 202.573
0 202.573
0 202.573
ITEM: ATOMS id type x y z
79769 1 76.7561 95.7473 60.9301
79952 1 48.2693 105.243 60.9301
83929 1 76.7561 98.9125 64.0953
96284 1 86.2517 102.078 73.5909
100314 1 79.9213 98.9125 76.7561
104156 1 86.2517 86.2517 79.9213
108571 1 83.0865 102.078 83.0865
325657 1 78.3387 103.66 49.8519
353882 1 81.5039 81.5039 72.0083
358106 1 81.5039 87.8343 75.1735
362199 1 72.0083 87.8343 78.3387
362329 1 78.3387 94.1647 78.3387
366492 1 87.8343 97.3299 81.5039
366621 1 90.9995 103.66 81.5039
