ITEM: TIMESTEP
67000
ITEM: NUMBER OF ATOMS
14
ITEM: BOX BOUNDS pp pp pp
0 202.573
0 202.573
0 202.573
ITEM: ATOMS id type x y z c_myKE c_myPE
63459 1 109.279 96.1915 45.294 0.175677 -6.3723
322133 1 66.4119 133.488 45.2443 0.0752251 -6.5711
322197 1 66.3477 136.46 45.3745 0.100858 -6.56266
333386 1 29.4895 80.4982 56.6104 0.0648275 -6.16152
88085 1 63.0938 98.2868 67.5445 0.0814401 -6.02006
374610 1 56.8506 92.5459 88.7138 0.292314 -6.84732
128852 1 57.8829 93.3935 99.8629 0.203106 -6.9906
399636 1 60.0819 114.146 107.849 0.461938 -6.33808
62999 1 69.4685 75.7923 46.9182 0.084719 -6.5132
67677 1 93.438 102.836 51.7905 0.0805295 -5.75491
346081 1 101.181 101.207 64.5681 0.149876 -6.40412
124692 1 58.206 90.3001 96.4651 0.33877 -6.45348
128992 1 100.176 99.9097 99.9508 0.10785 -6.71856
133152 1 99.7568 102.822 103.043 0.056326 -6.86519
