ITEM: TIMESTEP
64327
ITEM: NUMBER OF ATOMS
17
ITEM: BOX BOUNDS pp pp pp
0 202.573
0 202.573
0 202.573
ITEM: ATOMS id type x y z c_myKE c_myPE
100693 1 61.3365 117.138 75.8882 0 -6.84529
358741 1 64.5977 120.584 75.6695 0 -6.77632
362836 1 61.1941 120.674 79.1002 0 -7.69602
145499 1 79.2443 102.87 110.865 0 -6.54375
412135 1 123.789 126.991 115.471 0 -6.25479
419101 1 91.893 64.431 121.844 0 -6.2542
170534 1 118.651 131.421 131.423 0 -6.25719
436568 1 73.9999 120.605 136.549 0 -6.25494
476897 1 102.71 89.9531 168.448 0 -6.25462
96659 1 58.1949 120.396 75.5422 0 -6.55357
358742 1 69.2596 122.283 74.2446 0 -6.59526
100758 1 65.8848 122.308 77.5569 0 -7.73805
112609 1 103.173 99.7911 87.029 0 -6.54502
374753 1 103.051 103.05 90.2817 0 -6.82102
129363 1 58.3971 115.822 97.9293 0 -6.25538
145433 1 77.6613 101.1 112.635 0 -6.82723
170221 1 141.336 112.634 131.768 0 -6.25493
