ITEM: TIMESTEP
68121
ITEM: NUMBER OF ATOMS
9
ITEM: BOX BOUNDS pp pp pp
0 202.573
0 202.573
0 202.573
ITEM: ATOMS id type x y z c_myKE c_myPE
326813 1 89.8625 161.993 48.5765 0 -6.9511
326877 1 90.1375 165.239 48.6574 0 -6.8184
357406 1 95.0597 51.6822 74.0148 0 -6.8244
361566 1 95.1861 54.9388 77.2728 0 -6.54743
64671 1 94.882 160.357 46.7744 0 -6.56753
64734 1 91.6057 163.594 46.7769 0 -7.6164
72170 1 131.772 125.388 53.2589 0 -6.25136
80109 1 141.327 110.694 59.6251 0 -6.25804
406806 1 69.1986 62.8308 113.883 0 -6.25811
