ITEM: TIMESTEP
66088
ITEM: NUMBER OF ATOMS
17
ITEM: BOX BOUNDS pp pp pp
0 202.573
0 202.573
0 202.573
ITEM: ATOMS id type x y z
63715 1 108.408 111.573 48.2693
63716 1 111.573 111.573 48.2693
84002 1 105.243 102.078 64.0953
87794 1 155.886 86.2517 67.2605
91876 1 111.573 86.2517 70.4257
91939 1 108.408 89.4169 70.4257
95904 1 98.9125 83.0865 73.5909
95922 1 155.886 83.0865 73.5909
96163 1 108.408 95.7473 73.5909
99809 1 102.078 73.5909 76.7561
108259 1 108.408 86.2517 83.0865
321827 1 109.991 116.321 46.6867
345826 1 106.826 87.8343 65.6779
349859 1 109.991 84.6691 68.8431
349860 1 113.156 84.6691 68.8431
350051 1 109.991 94.1647 68.8431
358247 1 122.652 94.1647 75.1735
