ITEM: TIMESTEP
67000
ITEM: NUMBER OF ATOMS
19
ITEM: BOX BOUNDS pp pp pp
0 202.573
0 202.573
0 202.573
ITEM: ATOMS id type x y z
99809 1 102.078 73.5909 76.7561
107927 1 70.4257 70.4257 83.0865
108251 1 83.0865 86.2517 83.0865
111954 1 54.5997 67.2605 86.2517
116307 1 57.7649 79.9213 89.4169
116507 1 83.0865 89.4169 89.4169
120404 1 60.9301 79.9213 92.5821
120603 1 83.0865 89.4169 92.5821
128598 1 67.2605 79.9213 98.9125
357736 1 125.817 68.8431 75.1735
361827 1 109.991 68.8431 78.3387
361829 1 116.321 68.8431 78.3387
361881 1 78.3387 72.0083 78.3387
370083 1 109.991 72.0083 84.6691
370272 1 100.495 81.5039 84.6691
374291 1 59.3475 78.3387 87.8343
374358 1 68.8431 81.5039 87.8343
378584 1 75.1735 87.8343 90.9995
386065 1 53.0171 53.0171 97.3299
