ITEM: TIMESTEP
65000
ITEM: NUMBER OF ATOMS
20
ITEM: BOX BOUNDS pp pp pp
0 202.573
0 202.573
0 202.573
ITEM: ATOMS id type x y z c_myKE c_myPE
341717 1 66.1182 88.7297 63.6655 0.0697278 -6.66429
353822 1 95.8921 78.9156 69.4189 0.219607 -7.46001
95967 1 96.3759 82.3261 72.6672 0.0259816 -7.34107
354019 1 111.698 88.7113 72.627 0.11971 -6.84319
358112 1 107.699 88.3026 75.9853 0.0731017 -7.94515
378861 1 144.066 101.623 89.7278 0.270023 -7.28063
382998 1 66.7089 101.222 96.3689 0.126648 -8.63749
391648 1 101.337 125.537 99.1436 0.00861541 -6.07531
34525 1 88.3881 87.2563 26.7318 0.107842 -6.82065
349793 1 101.07 80.9657 67.5959 0.0711834 -6.90637
91873 1 103.164 87.2463 71.0167 0.0600021 -6.67593
96035 1 107.45 91.8591 72.5883 0.170355 -7.05222
354082 1 109.258 93.4844 72.1425 0.0682213 -7.68805
100194 1 107.762 94.2326 74.2202 0.0814726 -7.63213
362273 1 107.696 90 78.0492 0.140076 -7.74849
128730 1 77.5189 86.9382 97.9728 0.0793535 -6.39861
129380 1 113.01 119.093 96.581 0.049654 -6.68474
395748 1 115.612 125.751 101.432 0.0150104 -6.38567
137638 1 116.692 122.355 103.99 0.124986 -6.99537
145639 1 120.256 109.64 112.638 0.383724 -6.97853
