ITEM: TIMESTEP
61290
ITEM: NUMBER OF ATOMS
16
ITEM: BOX BOUNDS pp pp pp
0 202.573
0 202.573
0 202.573
ITEM: ATOMS id type x y z
63457 1 102.078 98.9125 48.2693
75798 1 67.2605 102.078 57.7649
95574 1 67.2605 67.2605 73.5909
104606 1 92.5821 108.408 79.9213
108573 1 89.4169 102.078 83.0865
108703 1 95.7473 108.408 83.0865
112733 1 89.4169 105.243 86.2517
337757 1 90.9995 94.1647 59.3475
350684 1 87.8343 125.817 68.8431
366621 1 90.9995 103.66 81.5039
370652 1 87.8343 100.495 84.6691
370716 1 87.8343 103.66 84.6691
370717 1 90.9995 103.66 84.6691
370718 1 94.1647 103.66 84.6691
370781 1 90.9995 106.826 84.6691
374877 1 90.9995 106.826 87.8343
