ITEM: TIMESTEP
63000
ITEM: NUMBER OF ATOMS
19
ITEM: BOX BOUNDS pp pp pp
0 202.573
0 202.573
0 202.573
ITEM: ATOMS id type x y z c_myKE c_myPE
345949 1 91.7788 93.1448 64.2307 0.0846813 -7.28052
346012 1 88.8366 96.29 64.324 0.15563 -7.04001
350044 1 88.4684 93.0419 67.7887 0.0938533 -6.51298
362265 1 78.7294 90.0287 77.119 0.285518 -7.45824
100186 1 76.8396 91.5934 75.5535 0.290552 -6.59286
362919 1 121.341 123.705 77.0031 0.183046 -6.65625
366297 1 76.0683 90.1205 80.7965 0.174828 -7.89937
370457 1 78.4884 89.6172 79.828 0.235059 -7.72704
112410 1 79.9884 88.5374 81.994 0.0583379 -7.3511
366750 1 93.1811 111.18 82.1484 0.150768 -7.12994
153051 1 83.845 75.7771 118.113 0.0179724 -7.93289
415195 1 85.8774 75.8718 120.255 0.0741557 -7.60179
415258 1 82.1404 79.605 120.205 0.0484852 -7.57494
423321 1 79.2803 72.7038 124.774 0.320785 -6.72354
91874 1 104.279 87.0503 69.3709 0.123032 -6.16231
108377 1 78.2523 92.1264 80.7643 0.15358 -7.81205
108443 1 80.6232 93.3591 80.7623 0.378678 -7.00915
104544 1 97.6843 106.407 80.8848 0.1832 -6.86884
128660 1 58.5136 80.9015 98.0506 0.113714 -6.59927
