ITEM: TIMESTEP
72000
ITEM: NUMBER OF ATOMS
25
ITEM: BOX BOUNDS pp pp pp
0 202.573
0 202.573
0 202.573
ITEM: ATOMS id type x y z
100392 1 124.234 102.078 76.7561
104732 1 86.2517 114.738 79.9213
104916 1 60.9301 124.234 79.9213
104918 1 67.2605 124.234 79.9213
104981 1 64.0953 127.399 79.9213
108054 1 67.2605 76.7561 83.0865
108576 1 98.9125 102.078 83.0865
108636 1 86.2517 105.243 83.0865
112923 1 83.0865 114.738 86.2517
112924 1 86.2517 114.738 86.2517
125209 1 76.7561 114.738 95.7473
350484 1 62.5127 116.321 68.8431
366232 1 75.1735 84.6691 81.5039
366492 1 87.8343 97.3299 81.5039
370395 1 84.6691 87.8343 84.6691
370848 1 100.495 109.991 84.6691
371100 1 87.8343 122.652 84.6691
374554 1 81.5039 90.9995 87.8343
374748 1 87.8343 100.495 87.8343
375003 1 84.6691 113.156 87.8343
378394 1 81.5039 78.3387 90.9995
378716 1 87.8343 94.1647 90.9995
378910 1 94.1647 103.66 90.9995
379290 1 81.5039 122.652 90.9995
407701 1 65.6779 109.991 113.156
