ITEM: TIMESTEP
72838
ITEM: NUMBER OF ATOMS
29
ITEM: BOX BOUNDS pp pp pp
0 202.573
0 202.573
0 202.573
ITEM: ATOMS id type x y z
95578 1 79.9213 67.2605 73.5909
99802 1 79.9213 73.5909 76.7561
103965 1 89.4169 76.7561 79.9213
108058 1 79.9213 76.7561 83.0865
108061 1 89.4169 76.7561 83.0865
116246 1 67.2605 76.7561 89.4169
145038 1 41.9389 83.0865 111.573
145231 1 45.1041 92.5821 111.573
149073 1 51.4345 79.9213 114.738
153163 1 32.4433 79.9213 117.904
153486 1 41.9389 95.7473 117.904
161101 1 38.7737 67.2605 124.234
161167 1 45.1041 70.4257 124.234
161294 1 41.9389 76.7561 124.234
161295 1 45.1041 76.7561 124.234
165075 1 57.7649 60.9301 127.399
165391 1 45.1041 76.7561 127.399
349596 1 87.8343 72.0083 68.8431
366172 1 87.8343 81.5039 81.5039
370205 1 90.9995 78.3387 84.6691
374361 1 78.3387 81.5039 87.8343
390294 1 68.8431 59.3475 100.495
407115 1 34.0259 81.5039 113.156
407119 1 46.6867 81.5039 113.156
407179 1 34.0259 84.6691 113.156
419214 1 43.5215 72.0083 122.652
423309 1 40.3563 72.0083 125.817
423310 1 43.5215 72.0083 125.817
451925 1 65.6779 68.8431 147.973
