ITEM: TIMESTEP
61000
ITEM: NUMBER OF ATOMS
13
ITEM: BOX BOUNDS pp pp pp
0 202.573
0 202.573
0 202.573
ITEM: ATOMS id type x y z
78872 1 73.5909 51.4345 60.9301
87391 1 95.7473 67.2605 67.2605
87455 1 95.7473 70.4257 67.2605
115863 1 70.4257 57.7649 89.4169
148508 1 86.2517 51.4345 114.738
349535 1 97.3299 68.8431 68.8431
358034 1 56.1823 84.6691 75.1735
369815 1 72.0083 59.3475 84.6691
369880 1 75.1735 62.5127 84.6691
373910 1 68.8431 59.3475 87.8343
373911 1 72.0083 59.3475 87.8343
373975 1 72.0083 62.5127 87.8343
407128 1 75.1735 81.5039 113.156
