ITEM: TIMESTEP
70211
ITEM: NUMBER OF ATOMS
14
ITEM: BOX BOUNDS pp pp pp
0 202.573
0 202.573
0 202.573
ITEM: ATOMS id type x y z c_myKE c_myPE
115999 1 96.3343 60.0051 86.7668 0 -6.25246
373342 1 93.1448 31.2829 89.9504 0 -6.2557
374059 1 134.613 64.4295 88.7059 0 -6.25466
383002 1 82.327 102.712 95.0824 0 -6.25562
410980 1 112.282 67.6176 115.472 0 -6.25454
418987 1 136.557 58.0503 123.797 0 -6.25497
345306 1 82.0526 61.7132 67.8881 0 -6.54962
95266 1 106.255 50.075 72.4052 0 -6.25429
349337 1 78.797 61.5856 71.1444 0 -6.8221
112085 1 64.7724 72.4107 87.1169 0 -6.25628
128626 1 157.291 80.7324 99.8709 0 -6.25497
145106 1 55.2128 85.1694 110.685 0 -6.25452
156513 1 103.055 40.5153 120.271 0 -6.82255
156577 1 103.18 43.7724 123.526 0 -6.54822
