ITEM: TIMESTEP
70211
ITEM: NUMBER OF ATOMS
14
ITEM: BOX BOUNDS pp pp pp
0 202.573
0 202.573
0 202.573
ITEM: ATOMS id type x y z
111839 1 95.7473 60.9301 86.2517
115358 1 92.5821 32.4433 89.4169
116011 1 133.73 64.0953 89.4169
124955 1 83.0865 102.078 95.7473
148836 1 111.573 67.2605 114.738
160940 1 136.895 57.7649 124.234
349402 1 81.5039 62.5127 68.8431
353250 1 106.826 49.8519 72.0083
353497 1 78.3387 62.5127 72.0083
374165 1 65.6779 72.0083 87.8343
390770 1 157.469 81.5039 100.495
403090 1 56.1823 84.6691 109.991
414497 1 103.66 40.3563 119.486
418657 1 103.66 43.5215 122.652
