ITEM: TIMESTEP
70000
ITEM: NUMBER OF ATOMS
16
ITEM: BOX BOUNDS pp pp pp
0 202.573
0 202.573
0 202.573
ITEM: ATOMS id type x y z c_myKE c_myPE
337164 1 38.0968 64.745 58.0817 0.397601 -6.37148
369743 1 45.4704 56.6206 85.3832 0.385738 -6.48862
120345 1 77.0737 75.6492 95.0019 0.317608 -7.77011
124505 1 80.3094 78.8761 95.1164 0.128809 -7.4464
383315 1 60.5036 122.158 94.9009 0.125461 -6.64657
386778 1 80.4976 78.889 98.2935 0.059375 -7.95967
387015 1 19.5356 100.767 98.35 0.0140471 -6.55048
128095 1 96.3816 53.8521 101.938 0.421067 -6.90972
153309 1 90.2056 88.6289 118.826 0.174662 -6.95794
82847 1 94.6324 45.8608 62.6896 0.152641 -7.04194
345703 1 120.306 80.5276 64.5311 0.160346 -6.11126
124506 1 77.1715 78.4634 94.8998 0.137288 -7.65424
136728 1 77.2203 75.3544 98.1588 0.0244783 -7.45939
390743 1 77.1726 78.8262 98.0216 0.0405621 -8.17982
128603 1 81.866 80.3078 96.5497 0.339794 -6.54106
382424 1 78.6461 77.3928 99.7653 0.341965 -7.60856
