ITEM: TIMESTEP
64000
ITEM: NUMBER OF ATOMS
12
ITEM: BOX BOUNDS pp pp pp
0 202.573
0 202.573
0 202.573
ITEM: ATOMS id type x y z
99990 1 67.2605 83.0865 76.7561
108063 1 95.7473 76.7561 83.0865
108251 1 83.0865 86.2517 83.0865
116443 1 83.0865 86.2517 89.4169
132827 1 83.0865 86.2517 102.078
378336 1 100.495 75.1735 90.9995
378462 1 94.1647 81.5039 90.9995
378524 1 87.8343 84.6691 90.9995
378655 1 97.3299 90.9995 90.9995
382558 1 94.1647 81.5039 94.1647
386842 1 81.5039 90.9995 97.3299
395023 1 46.6867 90.9995 103.66
