ITEM: TIMESTEP
68000
ITEM: NUMBER OF ATOMS
13
ITEM: BOX BOUNDS pp pp pp
0 202.573
0 202.573
0 202.573
ITEM: ATOMS id type x y z
95704 1 73.5909 73.5909 73.5909
103904 1 98.9125 73.5909 79.9213
104220 1 86.2517 89.4169 79.9213
108578 1 105.243 102.078 83.0865
112542 1 92.5821 95.7473 86.2517
116763 1 83.0865 102.078 89.4169
128985 1 76.7561 98.9125 98.9125
141336 1 73.5909 102.078 108.408
370205 1 90.9995 78.3387 84.6691
374364 1 87.8343 81.5039 87.8343
383003 1 84.6691 103.66 94.1647
383066 1 81.5039 106.826 94.1647
383067 1 84.6691 106.826 94.1647
