ITEM: TIMESTEP
63218
ITEM: NUMBER OF ATOMS
14
ITEM: BOX BOUNDS pp pp pp
0 202.573
0 202.573
0 202.573
ITEM: ATOMS id type x y z
91929 1 76.7561 89.4169 70.4257
96090 1 79.9213 92.5821 73.5909
103897 1 76.7561 73.5909 79.9213
107993 1 76.7561 73.5909 83.0865
108313 1 76.7561 89.4169 83.0865
116568 1 73.5909 92.5821 89.4169
129508 1 111.573 124.234 98.9125
357848 1 75.1735 75.1735 75.1735
362329 1 78.3387 94.1647 78.3387
362725 1 116.321 113.156 78.3387
374552 1 75.1735 90.9995 87.8343
378972 1 87.8343 106.826 90.9995
382945 1 103.66 100.495 94.1647
407587 1 109.991 103.66 113.156
