ITEM: TIMESTEP
69000
ITEM: NUMBER OF ATOMS
12
ITEM: BOX BOUNDS pp pp pp
0 202.573
0 202.573
0 202.573
ITEM: ATOMS id type x y z
99996 1 86.2517 83.0865 76.7561
104214 1 67.2605 89.4169 79.9213
111961 1 76.7561 67.2605 86.2517
128410 1 79.9213 70.4257 98.9125
128535 1 70.4257 76.7561 98.9125
136599 1 70.4257 70.4257 105.243
140637 1 89.4169 67.2605 108.408
144672 1 98.9125 64.0953 111.573
374170 1 81.5039 72.0083 87.8343
378509 1 40.3563 84.6691 90.9995
386459 1 84.6691 72.0083 97.3299
390299 1 84.6691 59.3475 100.495
