ITEM: TIMESTEP
64000
ITEM: NUMBER OF ATOMS
18
ITEM: BOX BOUNDS pp pp pp
0 202.573
0 202.573
0 202.573
ITEM: ATOMS id type x y z
95586 1 105.243 67.2605 73.5909
99676 1 86.2517 67.2605 76.7561
104284 1 86.2517 92.5821 79.9213
107867 1 83.0865 67.2605 83.0865
107931 1 83.0865 70.4257 83.0865
108061 1 89.4169 76.7561 83.0865
341284 1 113.156 65.6779 62.5127
349668 1 113.156 75.1735 68.8431
357531 1 84.6691 59.3475 75.1735
357728 1 100.495 68.8431 75.1735
361690 1 81.5039 62.5127 78.3387
361822 1 94.1647 68.8431 78.3387
365917 1 90.9995 68.8431 81.5039
366428 1 87.8343 94.1647 81.5039
366684 1 87.8343 106.826 81.5039
370139 1 84.6691 75.1735 84.6691
374363 1 84.6691 81.5039 87.8343
378330 1 81.5039 75.1735 90.9995
