ITEM: TIMESTEP
68227
ITEM: NUMBER OF ATOMS
20
ITEM: BOX BOUNDS pp pp pp
0 202.573
0 202.573
0 202.573
ITEM: ATOMS id type x y z c_myKE c_myPE
70999 1 69.5788 64.43 53.6146 0 -6.25629
385933 1 38.9979 45.1677 98.194 0 -6.54993
390028 1 35.7426 45.2918 101.45 0 -6.8218
394765 1 40.642 79.1164 102.698 0 -7.09166
394829 1 40.9325 82.244 102.939 0 -6.85365
394598 1 120.614 69.5661 104.657 0 -6.25563
398927 1 47.1671 82.0625 105.928 0 -6.65311
395162 1 82.2636 98.1987 104.774 0 -6.54485
395227 1 85.5189 101.457 104.654 0 -6.82216
140807 1 18.3511 75.778 111.155 0 -6.53848
415118 1 44.0159 75.9807 120.599 0 -6.26486
475789 1 40.8641 32.5344 166.509 0 -6.25549
95256 1 74.3642 50.0703 72.41 0 -6.2553
132622 1 42.5255 77.7085 100.974 0 -7.33423
136782 1 42.5164 80.4715 104.44 0 -7.2876
136847 1 45.7313 83.9619 104.148 0 -7.72589
144968 1 21.5114 78.9399 110.585 0 -6.5403
162082 1 104.319 115.825 125.398 0 -6.25513
169414 1 16.9258 72.386 129.843 0 -6.25959
464343 1 71.1724 77.5455 158.539 0 -6.25551
