ITEM: TIMESTEP
65000
ITEM: NUMBER OF ATOMS
12
ITEM: BOX BOUNDS pp pp pp
0 202.573
0 202.573
0 202.573
ITEM: ATOMS id type x y z c_myKE c_myPE
350314 1 133.088 105.13 69.6009 0.0104685 -6.44576
373899 1 32.5442 59.9099 86.5695 0.0673378 -6.67836
383002 1 79.0781 101.299 94.9223 0.314799 0
133148 1 82.086 104.549 96.2394 0.0358073 -6.18512
387369 1 128.379 117.372 96.2013 0.382969 -6.06388
387163 1 82.5636 102.738 98.0185 0.265333 -7.39796
404137 1 128.221 136.608 108.876 0.0651805 -6.75664
104277 1 61.4708 93.5178 82.154 0.254705 -6.40908
382162 1 56.7672 61.4339 91.5386 0.0444671 -6.33117
148888 1 74.3872 69.3527 115.614 0.0972634 -6.42939
152920 1 74.2414 66.0075 118.925 0.325063 -7.14182
152983 1 71.2743 69.3623 119.258 0.384113 -6.54733
