ITEM: TIMESTEP
69000
ITEM: NUMBER OF ATOMS
25
ITEM: BOX BOUNDS pp pp pp
0 202.573
0 202.573
0 202.573
ITEM: ATOMS id type x y z
107730 1 54.5997 60.9301 83.0865
108188 1 86.2517 83.0865 83.0865
108314 1 79.9213 89.4169 83.0865
112021 1 64.0953 70.4257 86.2517
112732 1 86.2517 105.243 86.2517
124501 1 64.0953 79.9213 95.7473
133916 1 86.2517 140.06 102.078
133922 1 105.243 140.06 102.078
137894 1 117.904 133.73 105.243
138016 1 98.9125 140.06 105.243
142051 1 108.408 136.895 108.408
150247 1 121.069 136.895 114.738
154340 1 111.573 136.895 117.904
170721 1 102.078 136.895 130.564
366107 1 84.6691 78.3387 81.5039
366234 1 81.5039 84.6691 81.5039
374102 1 68.8431 68.8431 87.8343
374422 1 68.8431 84.6691 87.8343
374876 1 87.8343 106.826 87.8343
374940 1 87.8343 109.991 87.8343
378006 1 68.8431 59.3475 90.9995
378199 1 72.0083 68.8431 90.9995
391964 1 87.8343 141.643 100.495
404258 1 106.826 141.643 109.991
412516 1 113.156 144.808 116.321
