ITEM: TIMESTEP
68000
ITEM: NUMBER OF ATOMS
25
ITEM: BOX BOUNDS pp pp pp
0 202.573
0 202.573
0 202.573
ITEM: ATOMS id type x y z
108257 1 102.078 86.2517 83.0865
116255 1 95.7473 76.7561 89.4169
116381 1 89.4169 83.0865 89.4169
116382 1 92.5821 83.0865 89.4169
116443 1 83.0865 86.2517 89.4169
120353 1 102.078 76.7561 92.5821
120410 1 79.9213 79.9213 92.5821
120415 1 95.7473 79.9213 92.5821
120535 1 70.4257 86.2517 92.5821
120606 1 92.5821 89.4169 92.5821
124383 1 95.7473 73.5909 95.7473
124444 1 86.2517 76.7561 95.7473
124449 1 102.078 76.7561 95.7473
124830 1 92.5821 95.7473 95.7473
357784 1 75.1735 72.0083 75.1735
358053 1 116.321 84.6691 75.1735
366237 1 90.9995 84.6691 81.5039
366300 1 87.8343 87.8343 81.5039
369757 1 90.9995 56.1823 84.6691
374302 1 94.1647 78.3387 87.8343
378393 1 78.3387 78.3387 90.9995
382680 1 75.1735 87.8343 94.1647
386525 1 90.9995 75.1735 97.3299
386528 1 100.495 75.1735 97.3299
386654 1 94.1647 81.5039 97.3299
