ITEM: TIMESTEP
70000
ITEM: NUMBER OF ATOMS
22
ITEM: BOX BOUNDS pp pp pp
0 202.573
0 202.573
0 202.573
ITEM: ATOMS id type x y z
104094 1 92.5821 83.0865 79.9213
116446 1 92.5821 86.2517 89.4169
120540 1 86.2517 86.2517 92.5821
120541 1 89.4169 86.2517 92.5821
120542 1 92.5821 86.2517 92.5821
120736 1 98.9125 95.7473 92.5821
124574 1 92.5821 83.0865 95.7473
125085 1 89.4169 108.408 95.7473
128607 1 95.7473 79.9213 98.9125
128982 1 67.2605 98.9125 98.9125
137303 1 70.4257 105.243 105.243
145431 1 70.4257 102.078 111.573
149850 1 79.9213 117.904 114.738
362402 1 106.826 97.3299 78.3387
374239 1 97.3299 75.1735 87.8343
382685 1 90.9995 87.8343 94.1647
386787 1 109.991 87.8343 97.3299
386905 1 78.3387 94.1647 97.3299
390873 1 78.3387 87.8343 100.495
399251 1 59.3475 97.3299 106.826
403288 1 75.1735 94.1647 109.991
403418 1 81.5039 100.495 109.991
