ITEM: TIMESTEP
62188
ITEM: NUMBER OF ATOMS
12
ITEM: BOX BOUNDS pp pp pp
0 202.573
0 202.573
0 202.573
ITEM: ATOMS id type x y z
62488 1 73.5909 51.4345 48.2693
120603 1 83.0865 89.4169 92.5821
153180 1 86.2517 79.9213 117.904
153243 1 83.0865 83.0865 117.904
157212 1 86.2517 76.7561 121.069
157275 1 83.0865 79.9213 121.069
399121 1 53.0171 90.9995 106.826
402520 1 75.1735 56.1823 109.991
406617 1 78.3387 56.1823 113.156
411163 1 84.6691 78.3387 116.321
415258 1 81.5039 78.3387 119.486
415260 1 87.8343 78.3387 119.486
