ITEM: TIMESTEP
70240
ITEM: NUMBER OF ATOMS
18
ITEM: BOX BOUNDS pp pp pp
0 202.573
0 202.573
0 202.573
ITEM: ATOMS id type x y z c_myKE c_myPE
348892 1 88.7126 35.7133 67.6271 0 -6.25407
357664 1 102.719 66.3802 75.9363 0 -6.26223
371413 1 64.4305 139.734 83.5771 0 -6.25384
378079 1 96.4154 63.095 92.0191 0 -6.5497
116063 1 93.1615 66.3546 91.8916 0 -6.81944
386080 1 102.72 53.6077 98.2808 0 -6.26403
399060 1 66.5078 93.3285 104.473 0 -6.73094
133016 1 69.6851 96.5288 104.552 0 -6.67025
141140 1 61.1918 86.8293 107.712 0 -6.9601
141015 1 63.0556 88.7683 109.433 0 -7.45799
149208 1 71.0721 91.9088 109.204 0 -6.82878
141270 1 66.3366 96.547 107.953 0 -6.6149
414813 1 91.9002 54.8484 118.672 0 -6.25631
424012 1 35.7257 105.893 126.991 0 -6.25403
125012 1 58.3752 107.543 97.8415 0 -6.30913
141079 1 61.5475 91.0874 106.107 0 -6.96964
402130 1 53.273 37.312 109.447 0 -6.25376
230414 1 42.4625 50.0767 179.619 0 -6.2542
