ITEM: TIMESTEP
68153
ITEM: NUMBER OF ATOMS
20
ITEM: BOX BOUNDS pp pp pp
0 202.573
0 202.573
0 202.573
ITEM: ATOMS id type x y z
99546 1 79.9213 60.9301 76.7561
112154 1 79.9213 76.7561 86.2517
120603 1 83.0865 89.4169 92.5821
124699 1 83.0865 89.4169 95.7473
124764 1 86.2517 92.5821 95.7473
124891 1 83.0865 98.9125 95.7473
125015 1 70.4257 105.243 95.7473
128155 1 83.0865 57.7649 98.9125
128730 1 79.9213 86.2517 98.9125
374621 1 90.9995 94.1647 87.8343
374750 1 94.1647 100.495 87.8343
378592 1 100.495 87.8343 90.9995
378784 1 100.495 97.3299 90.9995
382488 1 75.1735 78.3387 94.1647
382750 1 94.1647 90.9995 94.1647
383136 1 100.495 109.991 94.1647
386848 1 100.495 90.9995 97.3299
386905 1 78.3387 94.1647 97.3299
391264 1 100.495 106.826 100.495
399386 1 81.5039 103.66 106.826
