ITEM: TIMESTEP
72000
ITEM: NUMBER OF ATOMS
33
ITEM: BOX BOUNDS pp pp pp
0 202.573
0 202.573
0 202.573
ITEM: ATOMS id type x y z
99927 1 70.4257 79.9213 76.7561
100245 1 64.0953 95.7473 76.7561
100246 1 67.2605 95.7473 76.7561
108247 1 70.4257 86.2517 83.0865
112096 1 98.9125 73.5909 86.2517
145558 1 67.2605 108.408 111.573
178963 1 57.7649 140.06 136.895
179093 1 64.0953 146.39 136.895
182930 1 54.5997 133.73 140.06
182996 1 60.9301 136.895 140.06
182997 1 64.0953 136.895 140.06
183060 1 60.9301 140.06 140.06
187031 1 70.4257 133.73 143.225
187222 1 67.2605 143.225 143.225
191059 1 57.7649 130.564 146.39
195224 1 73.5909 133.73 149.556
207247 1 45.1041 121.069 159.051
211667 1 57.7649 136.895 162.216
350295 1 72.0083 106.826 68.8431
358227 1 59.3475 94.1647 75.1735
358293 1 65.6779 97.3299 75.1735
362196 1 62.5127 87.8343 78.3387
369818 1 81.5039 59.3475 84.6691
387031 1 72.0083 100.495 97.3299
445008 1 49.8519 132.147 141.643
445011 1 59.3475 132.147 141.643
449104 1 49.8519 132.147 144.808
449233 1 53.0171 138.478 144.808
449694 1 94.1647 160.634 144.808
453456 1 49.8519 144.808 147.973
461329 1 53.0171 128.982 154.304
465555 1 59.3475 135.312 157.469
469584 1 49.8519 132.147 160.634
