ITEM: TIMESTEP
60000
ITEM: NUMBER OF ATOMS
13
ITEM: BOX BOUNDS pp pp pp
0 202.573
0 202.573
0 202.573
ITEM: ATOMS id type x y z
104089 1 76.7561 83.0865 79.9213
104090 1 79.9213 83.0865 79.9213
108500 1 60.9301 98.9125 83.0865
120082 1 54.5997 64.0953 92.5821
137182 1 92.5821 98.9125 105.243
140250 1 79.9213 48.2693 108.408
144282 1 79.9213 45.1041 111.573
149023 1 95.7473 76.7561 114.738
354079 1 97.3299 90.9995 72.0083
366169 1 78.3387 81.5039 81.5039
403038 1 94.1647 81.5039 109.991
406426 1 81.5039 46.6867 113.156
411160 1 75.1735 78.3387 116.321
