ITEM: TIMESTEP
63000
ITEM: NUMBER OF ATOMS
18
ITEM: BOX BOUNDS pp pp pp
0 202.573
0 202.573
0 202.573
ITEM: ATOMS id type x y z c_myKE c_myPE
324956 1 88.529 69.7777 48.523 0.240461 -6.81924
333147 1 85.5377 69.682 51.3436 0.258147 -6.31676
326113 1 102.477 125.176 51.6296 0.100542 -6.46158
333089 1 102.641 63.0474 53.8421 0.156704 -6.54731
96288 1 97.9727 104.621 70.8353 0.127817 -6.87153
357403 1 83.8251 51.9908 76.0119 0.132907 -6.64202
365284 1 114.161 35.9562 80.3926 0.111794 -6.76699
363107 1 109.129 131.669 79.2563 0.133947 -6.57583
109153 1 104.969 131.563 83.6088 0.107493 -6.54383
375775 1 98.4048 152.52 88.6063 0.165218 -8.44921
358238 1 97.2407 99.8125 75.5851 0.0423373 -6.85727
96287 1 94.6979 104.265 74.2638 0.0945556 -7.02576
99356 1 85.152 50.1505 77.7462 0.253689 -8.63608
111783 1 120.192 56.2698 85.3632 0.207566 -5.97688
117791 1 96.8079 154.188 90.2423 0.0855849 -6.76874
121184 1 101.061 118.917 93.1653 0.15279 -6.95311
121248 1 98.28 122.328 93.3131 0.0444268 -7.0457
133036 1 136.385 93.8576 101.276 0.324173 -6.52385
