ITEM: TIMESTEP
67000
ITEM: NUMBER OF ATOMS
23
ITEM: BOX BOUNDS pp pp pp
0 240
0 240
0 240
ITEM: ATOMS id type x y z
181958 1 111.75 102.75 84.75
188356 1 105.75 102.75 87.75
194600 1 117.75 96.75 90.75
194758 1 111.75 102.75 90.75
201000 1 117.75 96.75 93.75
201085 1 132.75 99.75 93.75
201162 1 123.75 102.75 93.75
220361 1 120.75 102.75 102.75
252122 1 123.75 93.75 117.75
258518 1 111.75 93.75 120.75
271810 1 147.75 111.75 126.75
271888 1 141.75 114.75 126.75
700438 1 113.25 107.25 89.25
706602 1 125.25 98.25 92.25
706680 1 119.25 101.25 92.25
712916 1 107.25 95.25 95.25
713158 1 113.25 104.25 95.25
719562 1 125.25 104.25 98.25
725724 1 131.25 95.25 101.25
725806 1 137.25 98.25 101.25
776450 1 149.25 77.25 125.25
776530 1 149.25 80.25 125.25
776840 1 119.25 92.25 125.25
