ITEM: TIMESTEP
66000
ITEM: NUMBER OF ATOMS
14
ITEM: BOX BOUNDS pp pp pp
0 240
0 240
0 240
ITEM: ATOMS id type x y z c_myKE c_myPE
705787 1 76.4943 64.1288 89.7859 0.108794 -7.2465
705788 1 80.0058 64.2584 89.1844 0.0927924 -6.35089
712188 1 80.0327 64.074 92.6482 0.23336 -6.45922
746198 1 111.73 145.625 108.648 0.0731557 -6.67751
784211 1 155.492 129.771 129.863 0.0810836 -6.67389
809165 1 137.464 102.325 143.622 0.0324934 -5.81509
847883 1 126.644 115 161.637 0.124503 -5.89649
737874 1 102.356 67.6935 106.43 0.187399 -6.60041
232356 1 105.5 70.9929 107.351 0.067817 -7.07682
259798 1 112.037 142.055 122.78 0.109743 -6.51997
278748 1 78.4759 135.15 129.869 0.14379 -5.70903
290297 1 170.606 83.8391 137.761 0.479119 -6.64923
828025 1 70.7738 88.5949 151.604 0.0471241 -6.68586
828024 1 70.435 90.2688 153.471 0.10621 -7.10091
