ITEM: TIMESTEP
66000
ITEM: NUMBER OF ATOMS
23
ITEM: BOX BOUNDS pp pp pp
0 240
0 240
0 240
ITEM: ATOMS id type x y z c_myKE c_myPE
718659 1 53.4715 67.3538 94.6995 0.0112969 -6.26598
213556 1 108.451 82.118 97.9094 0.171183 -6.70231
726519 1 117.371 126.39 98.8265 0.0199618 -7.03634
725470 1 84.6747 78.8186 102.463 0.358134 -7.05115
797249 1 148.819 137.415 134.398 0.0926102 -6.77124
297799 1 118.275 123.514 140.708 0.192166 -6.93858
815145 1 70.4901 88.3531 145.692 0.14569 -6.3652
820672 1 94.9476 50.0261 150.216 0.0348315 -6.8507
820673 1 97.5533 53.2659 148.617 0.128141 -7.53147
833392 1 94.8826 46.7217 153.233 0.311456 -6.94782
853398 1 112.018 79.7937 164.86 0.0520327 -6.37635
194181 1 57.854 80.7963 89.7882 0.178912 -6.67071
207485 1 134.392 100.77 94.4664 0.0833622 -5.6991
213701 1 56.1688 93.2024 97.574 0.0826505 -6.76644
219710 1 84.7297 78.4582 99.6718 0.0377936 -7.2896
219790 1 86.7257 77.3362 101.22 0.403411 -5.80401
234108 1 80.3125 140.842 107.294 0.0798139 -7.30833
245230 1 87.0674 72.1696 113.461 0.0800875 -6.00375
815719 1 116.834 110.418 141.934 0.293524 -6.46988
309064 1 65.6476 67.6008 147.424 0.0738027 -7.27789
309065 1 68.8719 67.4711 147.153 0.0485062 -6.85433
309144 1 65.8309 70.7586 147.319 0.557463 -7.33964
315545 1 68.7179 70.6277 150.272 0.256313 -6.92102
