ITEM: TIMESTEP
69000
ITEM: NUMBER OF ATOMS
18
ITEM: BOX BOUNDS pp pp pp
0 240
0 240
0 240
ITEM: ATOMS id type x y z
213874 1 99.75 99.75 99.75
246113 1 96.75 108.75 114.75
258749 1 84.75 102.75 120.75
265236 1 105.75 105.75 123.75
271629 1 84.75 105.75 126.75
271788 1 81.75 111.75 126.75
271791 1 90.75 111.75 126.75
277955 1 102.75 102.75 129.75
329309 1 84.75 108.75 153.75
392838 1 111.75 90.75 183.75
758032 1 95.25 107.25 116.25
770675 1 104.25 101.25 122.25
777152 1 95.25 104.25 125.25
777230 1 89.25 107.25 125.25
783556 1 107.25 104.25 128.25
795714 1 101.25 80.25 134.25
796427 1 80.25 107.25 134.25
904836 1 107.25 92.25 185.25
