ITEM: TIMESTEP
67000
ITEM: NUMBER OF ATOMS
16
ITEM: BOX BOUNDS pp pp pp
0 240
0 240
0 240
ITEM: ATOMS id type x y z
207717 1 108.75 108.75 96.75
214032 1 93.75 105.75 99.75
214760 1 117.75 132.75 99.75
227073 1 96.75 114.75 105.75
227234 1 99.75 120.75 105.75
233717 1 108.75 123.75 108.75
240199 1 114.75 126.75 111.75
253235 1 102.75 135.75 117.75
707802 1 125.25 143.25 92.25
719956 1 107.25 119.25 98.25
720279 1 116.25 131.25 98.25
726760 1 119.25 134.25 101.25
732916 1 107.25 125.25 104.25
733004 1 131.25 128.25 104.25
745314 1 101.25 110.25 110.25
745555 1 104.25 119.25 110.25
