ITEM: TIMESTEP
69168
ITEM: NUMBER OF ATOMS
24
ITEM: BOX BOUNDS pp pp pp
0 240
0 240
0 240
ITEM: ATOMS id type x y z c_myKE c_myPE
699235 1 104.225 57.6272 88.2637 0 -6.25345
700120 1 118.221 92.7123 88.2629 0 -6.25349
706470 1 215.875 91.4523 91.7724 0 -6.62038
713024 1 198.066 97.7383 94.7956 0 -6.44076
713410 1 150.119 111.842 94.6424 0 -6.25626
744763 1 129.735 86.3233 108.648 0 -6.25246
745246 1 139.321 107.421 110.721 0 -6.82802
770123 1 127.788 78.6996 121.407 0 -6.25712
265079 1 117.035 101.09 126.61 0 -6.28052
777160 1 120.125 104.18 127.836 0 -7.37589
783560 1 120.125 102.319 129.695 0 -7.37388
271640 1 118.263 104.178 129.695 0 -7.37716
834437 1 110.59 91.471 155.256 0 -6.26477
136781 1 185.573 84.7319 59.1935 0 -6.25382
130693 1 158.182 99.5534 57.8792 0 -6.54747
137092 1 154.927 99.4277 61.1346 0 -6.82083
712950 1 217.526 94.7684 94.2443 0 -6.96644
207353 1 220.951 92.789 96.0225 0 -7.28198
725823 1 195.013 97.6092 100.489 0 -6.49509
239646 1 137.552 105.652 112.3 0 -6.54073
783551 1 89.7828 105.734 128.258 0 -6.54416
777311 1 93.0369 108.991 128.136 0 -6.81965
283831 1 218.707 78.3455 134.512 0 -6.25402
335241 1 121.76 89.8722 160.033 0 -6.25084
