ITEM: TIMESTEP
65000
ITEM: NUMBER OF ATOMS
15
ITEM: BOX BOUNDS pp pp pp
0 240
0 240
0 240
ITEM: ATOMS id type x y z c_myKE c_myPE
572522 1 126.41 108.62 22.6592 0.076308 -6.15806
668679 1 113.785 111.65 69.3296 0.252023 -7.19993
150360 1 116.895 115.334 69.1045 0.162834 -7.77363
668599 1 113.729 115.065 72.2668 0.00464302 -8.02388
719779 1 51.219 115.134 98.1082 0.0435972 -6.46544
731547 1 76.7157 72.3038 102.639 0.0193882 -6.2932
751785 1 70.3762 111.986 112.107 0.290979 -6.66308
745385 1 72.1987 113.758 110.661 0.115287 -6.70255
642919 1 116.862 112.389 56.2579 0.141786 -5.82274
131079 1 113.421 115.211 55.9519 0.0207548 -5.9389
662198 1 112.247 113.616 70.5439 0.0586734 -7.63583
163080 1 115.29 113.603 70.6878 0.0217246 -8.45274
156760 1 115.367 116.871 70.6705 0.0270588 -7.40467
163160 1 118.371 116.641 73.9923 0.104729 -7.5135
163159 1 115.458 119.941 73.8116 0.313569 -6.04841
