ITEM: TIMESTEP
67135
ITEM: NUMBER OF ATOMS
14
ITEM: BOX BOUNDS pp pp pp
0 240
0 240
0 240
ITEM: ATOMS id type x y z
213635 1 102.75 90.75 99.75
213713 1 96.75 93.75 99.75
213793 1 96.75 96.75 99.75
240196 1 105.75 126.75 111.75
258675 1 102.75 99.75 120.75
271791 1 90.75 111.75 126.75
278109 1 84.75 108.75 129.75
284436 1 105.75 105.75 132.75
744757 1 110.25 89.25 110.25
745713 1 98.25 125.25 110.25
764116 1 107.25 95.25 119.25
770995 1 104.25 113.25 122.25
796432 1 95.25 107.25 134.25
809312 1 95.25 110.25 140.25
