ITEM: TIMESTEP
68000
ITEM: NUMBER OF ATOMS
16
ITEM: BOX BOUNDS pp pp pp
0 240
0 240
0 240
ITEM: ATOMS id type x y z
213873 1 96.75 99.75 99.75
232835 1 102.75 90.75 108.75
233312 1 93.75 108.75 108.75
246355 1 102.75 117.75 114.75
284752 1 93.75 117.75 132.75
304199 1 114.75 126.75 141.75
719472 1 95.25 101.25 98.25
726354 1 101.25 119.25 101.25
739883 1 128.25 146.25 107.25
745153 1 98.25 104.25 110.25
745794 1 101.25 128.25 110.25
751635 1 104.25 107.25 113.25
753162 1 125.25 164.25 113.25
765963 1 128.25 164.25 119.25
790848 1 143.25 137.25 131.25
797400 1 119.25 143.25 134.25
