ITEM: TIMESTEP
66000
ITEM: NUMBER OF ATOMS
14
ITEM: BOX BOUNDS pp pp pp
0 240
0 240
0 240
ITEM: ATOMS id type x y z
194917 1 108.75 108.75 90.75
207393 1 96.75 96.75 96.75
246120 1 117.75 108.75 114.75
246360 1 117.75 117.75 114.75
252438 1 111.75 105.75 117.75
252677 1 108.75 114.75 117.75
259318 1 111.75 123.75 120.75
265077 1 108.75 99.75 123.75
714028 1 83.25 137.25 95.25
751800 1 119.25 113.25 113.25
758037 1 110.25 107.25 116.25
764437 1 110.25 107.25 119.25
770840 1 119.25 107.25 122.25
776759 1 116.25 89.25 125.25
