ITEM: TIMESTEP
69173
ITEM: NUMBER OF ATOMS
25
ITEM: BOX BOUNDS pp pp pp
0 240
0 240
0 240
ITEM: ATOMS id type x y z c_myKE c_myPE
674504 1 67.1816 94.6458 73.5697 0 -6.255
214029 1 81.8869 104.213 95.8888 0 -6.25719
725719 1 116.81 95.7741 100.878 0 -6.54112
234123 1 127.783 140.543 105.473 0 -6.2535
861009 1 148.866 129.723 166.08 0 -6.25336
866196 1 107.409 81.8781 171.211 0 -6.25338
898508 1 80.1026 92.8531 187.272 0 -6.54066
956194 1 99.2897 97.6749 215.98 0 -6.7354
956273 1 95.9221 100.996 215.843 0 -7.02579
962593 1 95.8494 98.0112 219.134 0 -7.70004
183154 1 99.3498 150.384 81.4286 0 -6.54631
183235 1 102.606 153.639 81.5568 0 -6.81849
215462 1 59.2114 161.28 97.49 0 -6.25412
226680 1 118.58 97.3573 102.649 0 -6.83317
227469 1 81.8488 129.691 106.876 0 -7.06197
233870 1 83.6682 129.691 108.693 0 -7.06139
233869 1 81.8489 131.51 108.694 0 -7.0652
246128 1 144.082 108.999 113.45 0 -6.25357
796582 1 59.2129 110.237 135.767 0 -6.25344
386508 1 78.3321 91.0828 185.69 0 -6.8255
425555 1 97.4223 112.236 207.961 0 -6.2836
431873 1 94.3333 115.323 209.188 0 -7.37461
956592 1 93.1032 112.238 212.279 0 -6.28502
438273 1 96.1935 115.325 211.048 0 -7.37381
456994 1 97.729 96.2366 220.589 0 -6.63912
