ITEM: TIMESTEP
67000
ITEM: NUMBER OF ATOMS
11
ITEM: BOX BOUNDS pp pp pp
0 240
0 240
0 240
ITEM: ATOMS id type x y z c_myKE c_myPE
711892 1 158.5 51.2103 91.6153 0.015572 -6.87218
240441 1 120.457 135.756 108.899 0.237938 -7.01863
752439 1 117.377 137.231 111.656 0.328434 -6.43757
782922 1 124.697 76.9972 127.791 0.0554565 -6.33585
821239 1 117.004 73.7706 146.866 0.643786 -6.51253
238911 1 89.8688 75.4106 112.729 0.033565 -6.91987
251631 1 89.9511 73.8982 116.643 0.127316 -6.72726
253316 1 102.563 138.475 118.618 0.0651528 -6.18305
290347 1 75.1116 86.946 135.716 0.109382 -6.69414
296748 1 78.3336 86.8773 138.645 0.114371 -6.13309
315725 1 132.463 75.3766 148.65 0.274827 -5.84409
