ITEM: TIMESTEP
67000
ITEM: NUMBER OF ATOMS
10
ITEM: BOX BOUNDS pp pp pp
0 240
0 240
0 240
ITEM: ATOMS id type x y z c_myKE c_myPE
770748 1 81.9491 102.247 123.703 0.0323779 -6.59751
777068 1 82.1551 99.027 126.526 0.0341675 -6.47887
789085 1 134.102 69.3034 133.131 0.201709 -6.63838
290032 1 91.7734 75.0603 137.398 0.0123757 -6.60222
841623 1 64.0989 121.514 158.361 0.123577 -6.56956
240200 1 118.601 128.296 110.427 0.360318 -6.41939
240267 1 75.4382 131.316 112.001 0.0319591 -6.55764
290113 1 93.1971 77.1186 137.427 0.211718 -6.95737
316205 1 134.62 94.1488 148.309 0.103773 -6.30398
317885 1 132.888 161.282 150.26 0.244329 -6.0443
