ITEM: TIMESTEP
67196
ITEM: NUMBER OF ATOMS
14
ITEM: BOX BOUNDS pp pp pp
0 240
0 240
0 240
ITEM: ATOMS id type x y z
220842 1 123.75 120.75 102.75
233156 1 105.75 102.75 108.75
239723 1 126.75 108.75 111.75
246124 1 129.75 108.75 114.75
284916 1 105.75 123.75 132.75
712999 1 116.25 98.25 95.25
725877 1 110.25 101.25 101.25
726044 1 131.25 107.25 101.25
738843 1 128.25 107.25 107.25
738844 1 131.25 107.25 107.25
745559 1 116.25 119.25 110.25
745643 1 128.25 122.25 110.25
745644 1 131.25 122.25 110.25
745876 1 107.25 131.25 110.25
