ITEM: TIMESTEP
66142
ITEM: NUMBER OF ATOMS
23
ITEM: BOX BOUNDS pp pp pp
0 240
0 240
0 240
ITEM: ATOMS id type x y z c_myKE c_myPE
713218 1 48.0512 107.41 92.7007 0 -6.25484
213481 1 121.41 81.8848 95.8988 0 -6.2548
739713 1 95.9282 140.53 105.64 0 -6.94138
238748 1 76.9365 65.7441 110.749 0 -7.24212
756187 1 78.6917 34.0275 115.029 0 -6.25318
214190 1 84.7321 110.232 99.4318 0 -6.25875
225785 1 70.6785 62.3918 103.82 0 -6.84705
225864 1 67.4414 65.6731 103.765 0 -6.53485
227714 1 97.7964 142.39 103.793 0 -7.52444
221793 1 96.2577 161.308 102.626 0 -6.25689
744267 1 78.349 64.3722 105.865 0 -7.0811
745954 1 99.7447 142.479 105.553 0 -7.35465
227794 1 97.9114 144.353 105.5 0 -7.1176
232187 1 75.2463 64.1048 108.818 0 -7.02409
232347 1 78.5738 67.4331 108.828 0 -7.01395
247404 1 129.402 158.108 115.391 0 -6.2521
253318 1 110.151 139.041 118.5 0 -6.52552
265642 1 123.018 121.763 123.012 0 -6.2533
259638 1 110.242 135.781 121.752 0 -6.81893
271868 1 80.6692 115.524 128.288 0 -6.81089
271949 1 83.1686 118.762 129.703 0 -7.06546
278349 1 83.1653 116.952 131.517 0 -7.04605
309228 1 80.2975 73.9136 147.278 0 -6.25276
