ITEM: TIMESTEP
66000
ITEM: NUMBER OF ATOMS
16
ITEM: BOX BOUNDS pp pp pp
0 240
0 240
0 240
ITEM: ATOMS id type x y z
207392 1 93.75 96.75 96.75
207470 1 87.75 99.75 96.75
220431 1 90.75 105.75 102.75
220512 1 93.75 108.75 102.75
233314 1 99.75 108.75 108.75
245796 1 105.75 96.75 114.75
252354 1 99.75 102.75 117.75
252355 1 102.75 102.75 117.75
309391 1 90.75 81.75 144.75
719634 1 101.25 107.25 98.25
738675 1 104.25 101.25 107.25
751869 1 86.25 116.25 113.25
770839 1 116.25 107.25 122.25
789630 1 89.25 92.25 131.25
789795 1 104.25 98.25 131.25
828758 1 113.25 119.25 149.25
