ITEM: TIMESTEP
66262
ITEM: NUMBER OF ATOMS
28
ITEM: BOX BOUNDS pp pp pp
0 240
0 240
0 240
ITEM: ATOMS id type x y z
143954 1 99.75 117.75 66.75
150675 1 102.75 129.75 69.75
157233 1 96.75 135.75 72.75
163474 1 99.75 129.75 75.75
163717 1 108.75 138.75 75.75
169714 1 99.75 123.75 78.75
176114 1 99.75 123.75 81.75
176276 1 105.75 129.75 81.75
195152 1 93.75 117.75 90.75
278603 1 126.75 126.75 129.75
278764 1 129.75 132.75 129.75
285081 1 120.75 129.75 132.75
636679 1 116.25 116.25 59.25
675153 1 98.25 119.25 77.25
675396 1 107.25 128.25 77.25
675473 1 98.25 131.25 77.25
675553 1 98.25 134.25 77.25
681794 1 101.25 128.25 80.25
682111 1 92.25 140.25 80.25
700595 1 104.25 113.25 89.25
700913 1 98.25 125.25 89.25
713154 1 101.25 104.25 95.25
738918 1 113.25 110.25 107.25
745959 1 116.25 134.25 110.25
784284 1 131.25 131.25 128.25
784524 1 131.25 140.25 128.25
790681 1 122.25 131.25 131.25
803643 1 128.25 137.25 137.25
