ITEM: TIMESTEP
66000
ITEM: NUMBER OF ATOMS
28
ITEM: BOX BOUNDS pp pp pp
0 240
0 240
0 240
ITEM: ATOMS id type x y z
99071 1 90.75 114.75 45.75
99312 1 93.75 123.75 45.75
99391 1 90.75 126.75 45.75
99946 1 75.75 147.75 45.75
106276 1 105.75 144.75 48.75
112193 1 96.75 126.75 51.75
124760 1 117.75 117.75 57.75
208750 1 87.75 147.75 96.75
208829 1 84.75 150.75 96.75
215230 1 87.75 150.75 99.75
232748 1 81.75 87.75 108.75
240590 1 87.75 141.75 111.75
272994 1 99.75 156.75 126.75
298210 1 147.75 141.75 138.75
304281 1 120.75 129.75 141.75
388508 1 81.75 168.75 180.75
617712 1 95.25 125.25 50.25
617713 1 98.25 125.25 50.25
624272 1 95.25 131.25 53.25
636679 1 116.25 116.25 59.25
644348 1 83.25 164.25 62.25
655800 1 119.25 113.25 68.25
720587 1 80.25 143.25 98.25
720668 1 83.25 146.25 98.25
725803 1 128.25 98.25 101.25
746031 1 92.25 137.25 110.25
752511 1 92.25 140.25 113.25
816689 1 146.25 146.25 143.25
