ITEM: TIMESTEP
68000
ITEM: NUMBER OF ATOMS
15
ITEM: BOX BOUNDS pp pp pp
0 240
0 240
0 240
ITEM: ATOMS id type x y z
232610 1 147.75 81.75 108.75
232845 1 132.75 90.75 108.75
239641 1 120.75 105.75 111.75
285166 1 135.75 132.75 132.75
291566 1 135.75 132.75 135.75
309724 1 129.75 93.75 144.75
310993 1 96.75 141.75 144.75
316044 1 129.75 90.75 147.75
726284 1 131.25 116.25 101.25
744676 1 107.25 86.25 110.25
751156 1 107.25 89.25 113.25
789165 1 134.25 74.25 131.25
790686 1 137.25 131.25 131.25
790746 1 77.25 134.25 131.25
872842 1 125.25 92.25 170.25
