ITEM: TIMESTEP
66169
ITEM: NUMBER OF ATOMS
23
ITEM: BOX BOUNDS pp pp pp
0 240
0 240
0 240
ITEM: ATOMS id type x y z
213793 1 96.75 96.75 99.75
226995 1 102.75 111.75 105.75
239471 1 90.75 99.75 111.75
252355 1 102.75 102.75 117.75
252598 1 111.75 111.75 117.75
258677 1 108.75 99.75 120.75
258832 1 93.75 105.75 120.75
258833 1 96.75 105.75 120.75
265398 1 111.75 111.75 123.75
278195 1 102.75 111.75 129.75
284519 1 114.75 108.75 132.75
751472 1 95.25 101.25 113.25
758517 1 110.25 125.25 116.25
764195 1 104.25 98.25 119.25
764274 1 101.25 101.25 119.25
764757 1 110.25 119.25 119.25
770675 1 104.25 101.25 122.25
770755 1 104.25 104.25 122.25
776994 1 101.25 98.25 125.25
777718 1 113.25 125.25 125.25
789714 1 101.25 95.25 131.25
790196 1 107.25 113.25 131.25
808914 1 101.25 95.25 140.25
