ITEM: TIMESTEP
66000
ITEM: NUMBER OF ATOMS
15
ITEM: BOX BOUNDS pp pp pp
0 240
0 240
0 240
ITEM: ATOMS id type x y z
226754 1 99.75 102.75 105.75
239315 1 102.75 93.75 111.75
239550 1 87.75 102.75 111.75
245549 1 84.75 87.75 114.75
245873 1 96.75 99.75 114.75
258671 1 90.75 99.75 120.75
732510 1 89.25 110.25 104.25
745391 1 92.25 113.25 110.25
751235 1 104.25 92.25 113.25
751315 1 104.25 95.25 113.25
751394 1 101.25 98.25 113.25
751633 1 98.25 107.25 113.25
757710 1 89.25 95.25 116.25
764192 1 95.25 98.25 119.25
789791 1 92.25 98.25 131.25
