ITEM: TIMESTEP
66456
ITEM: NUMBER OF ATOMS
14
ITEM: BOX BOUNDS pp pp pp
0 240
0 240
0 240
ITEM: ATOMS id type x y z
208681 1 120.75 144.75 96.75
225728 1 141.75 63.75 105.75
252203 1 126.75 96.75 117.75
252204 1 129.75 96.75 117.75
263959 1 114.75 57.75 123.75
264039 1 114.75 60.75 123.75
296051 1 150.75 60.75 138.75
681395 1 104.25 113.25 80.25
714200 1 119.25 143.25 95.25
762993 1 98.25 53.25 119.25
764203 1 128.25 98.25 119.25
775959 1 116.25 59.25 125.25
788918 1 113.25 65.25 131.25
795319 1 116.25 65.25 134.25
