ITEM: TIMESTEP
66000
ITEM: NUMBER OF ATOMS
14
ITEM: BOX BOUNDS pp pp pp
0 240
0 240
0 240
ITEM: ATOMS id type x y z
219958 1 111.75 87.75 102.75
220357 1 108.75 102.75 102.75
220438 1 111.75 105.75 102.75
226677 1 108.75 99.75 105.75
232912 1 93.75 93.75 108.75
233236 1 105.75 105.75 108.75
252517 1 108.75 108.75 117.75
738679 1 116.25 101.25 107.25
738920 1 119.25 110.25 107.25
739150 1 89.25 119.25 107.25
745238 1 113.25 107.25 110.25
764110 1 89.25 95.25 119.25
777234 1 101.25 107.25 125.25
802749 1 86.25 104.25 137.25
