ITEM: TIMESTEP
66000
ITEM: NUMBER OF ATOMS
17
ITEM: BOX BOUNDS pp pp pp
0 240
0 240
0 240
ITEM: ATOMS id type x y z c_myKE c_myPE
213415 1 165.649 78.5046 96.2375 0.0140249 -7.51636
201554 1 97.9502 118.221 94.0868 0.217995 -6.99605
719014 1 167.859 78.5537 97.7515 0.207752 -7.04885
219897 1 172.279 83.3389 99.2272 0.0224814 -6.93676
726538 1 178.823 124.895 99.0524 0.1893 -6.47516
731236 1 107.112 57.705 102.421 0.200003 -5.67785
239319 1 114.107 93.0807 113.432 0.0584101 -7.02107
782847 1 142.436 76.4752 129.947 0.313586 -6.33652
181558 1 111.835 84.9167 81.4417 0.534751 -7.14186
187957 1 109.218 83.6551 84.8027 0.0723464 -6.31431
181639 1 111.921 86.9377 83.0935 0.131011 -7.02896
207954 1 97.6895 116.576 96.0347 0.193768 -6.63311
738599 1 112.198 93.1089 111.651 0.110596 -6.57332
239479 1 108.845 96.9849 112.238 0.128487 -6.5595
751398 1 112.359 96.5344 115.522 0.148247 -7.38413
770525 1 134.86 91.416 123.142 0.0220475 -5.66214
278682 1 123.075 129.466 129.731 0.207262 -6.73511
