ITEM: TIMESTEP
65206
ITEM: NUMBER OF ATOMS
16
ITEM: BOX BOUNDS pp pp pp
0 240
0 240
0 240
ITEM: ATOMS id type x y z c_myKE c_myPE
669081 1 121.328 130.852 70.3411 0 -7.76278
675401 1 121.452 127.938 73.43 0 -7.67537
669082 1 123.37 129.857 72.2999 0 -7.68081
681720 1 118.21 124.639 76.8051 0 -7.00033
182681 1 121.606 127.775 76.5484 0 -7.21499
188912 1 92.7984 123.915 88.1837 0 -7.17493
669000 1 118.731 131.362 70.6915 0 -7.16094
163480 1 118.474 128.192 73.6912 0 -7.1638
175395 1 100.678 94.2476 78.3048 0 -7.51871
175476 1 103.985 97.5732 78.257 0 -6.57364
181796 1 103.992 94.2116 81.6271 0 -6.57196
188913 1 94.4613 125.172 86.5211 0 -6.57597
700911 1 89.9097 129.355 86.713 0 -6.25749
195392 1 91.2715 126.225 89.7118 0 -7.67214
700992 1 93.0287 128.152 89.8255 0 -7.42391
208201 1 121.786 126.198 94.3232 0 -6.2605
