ITEM: TIMESTEP
67000
ITEM: NUMBER OF ATOMS
19
ITEM: BOX BOUNDS pp pp pp
0 240
0 240
0 240
ITEM: ATOMS id type x y z
189475 1 102.75 144.75 87.75
213802 1 123.75 96.75 99.75
213968 1 141.75 102.75 99.75
214604 1 129.75 126.75 99.75
240106 1 75.75 123.75 111.75
246506 1 75.75 123.75 114.75
246507 1 78.75 123.75 114.75
246585 1 72.75 126.75 114.75
252037 1 108.75 90.75 117.75
252906 1 75.75 123.75 117.75
252908 1 81.75 123.75 117.75
680282 1 125.25 71.25 80.25
707715 1 104.25 140.25 92.25
712519 1 116.25 80.25 95.25
746017 1 50.25 137.25 110.25
752026 1 77.25 122.25 113.25
752105 1 74.25 125.25 113.25
758505 1 74.25 125.25 116.25
777385 1 74.25 113.25 125.25
