ITEM: TIMESTEP
67232
ITEM: NUMBER OF ATOMS
38
ITEM: BOX BOUNDS pp pp pp
0 240
0 240
0 240
ITEM: ATOMS id type x y z
207557 1 108.75 102.75 96.75
213798 1 111.75 96.75 99.75
226838 1 111.75 105.75 105.75
245797 1 108.75 96.75 114.75
245798 1 111.75 96.75 114.75
245879 1 114.75 99.75 114.75
252276 1 105.75 99.75 117.75
252279 1 114.75 99.75 117.75
252281 1 120.75 99.75 117.75
258679 1 114.75 99.75 120.75
277961 1 120.75 102.75 129.75
277966 1 135.75 102.75 129.75
290120 1 117.75 78.75 135.75
290843 1 126.75 105.75 135.75
316776 1 165.75 117.75 147.75
322772 1 153.75 102.75 150.75
335335 1 162.75 93.75 156.75
335729 1 144.75 108.75 156.75
341814 1 159.75 96.75 159.75
342368 1 141.75 117.75 159.75
355250 1 147.75 120.75 165.75
355329 1 144.75 123.75 165.75
719393 1 98.25 98.25 98.25
738599 1 116.25 98.25 107.25
745080 1 119.25 101.25 110.25
751478 1 113.25 101.25 113.25
757480 1 119.25 86.25 116.25
757799 1 116.25 98.25 116.25
764197 1 110.25 98.25 119.25
770678 1 113.25 101.25 122.25
789964 1 131.25 104.25 131.25
796362 1 125.25 104.25 134.25
822214 1 161.25 113.25 146.25
828284 1 131.25 101.25 149.25
828292 1 155.25 101.25 149.25
853650 1 149.25 92.25 161.25
854526 1 137.25 125.25 161.25
860844 1 131.25 122.25 164.25
