ITEM: TIMESTEP
66185
ITEM: NUMBER OF ATOMS
16
ITEM: BOX BOUNDS pp pp pp
0 240
0 240
0 240
ITEM: ATOMS id type x y z
252038 1 111.75 90.75 117.75
252114 1 99.75 93.75 117.75
258672 1 93.75 99.75 120.75
271554 1 99.75 102.75 126.75
699560 1 119.25 74.25 89.25
719155 1 104.25 89.25 98.25
732355 1 104.25 104.25 104.25
738196 1 107.25 83.25 107.25
738354 1 101.25 89.25 107.25
757555 1 104.25 89.25 116.25
757716 1 107.25 95.25 116.25
757792 1 95.25 98.25 116.25
757793 1 98.25 98.25 116.25
764029 1 86.25 92.25 119.25
777235 1 104.25 107.25 125.25
802912 1 95.25 110.25 137.25
