ITEM: TIMESTEP
66000
ITEM: NUMBER OF ATOMS
16
ITEM: BOX BOUNDS pp pp pp
0 240
0 240
0 240
ITEM: ATOMS id type x y z
200438 1 111.75 75.75 93.75
227239 1 114.75 120.75 105.75
227318 1 111.75 123.75 105.75
245971 1 150.75 102.75 114.75
251476 1 105.75 69.75 117.75
264434 1 99.75 75.75 123.75
265387 1 78.75 111.75 123.75
269715 1 102.75 33.75 126.75
271787 1 78.75 111.75 126.75
284044 1 129.75 90.75 132.75
290184 1 69.75 81.75 135.75
764587 1 80.25 113.25 119.25
770907 1 80.25 110.25 122.25
770987 1 80.25 113.25 122.25
777387 1 80.25 113.25 125.25
847557 1 110.25 104.25 158.25
