ITEM: TIMESTEP
68000
ITEM: NUMBER OF ATOMS
15
ITEM: BOX BOUNDS pp pp pp
0 240
0 240
0 240
ITEM: ATOMS id type x y z
252832 1 93.75 120.75 117.75
265478 1 111.75 114.75 123.75
265869 1 84.75 129.75 123.75
272267 1 78.75 129.75 126.75
272837 1 108.75 150.75 126.75
273000 1 117.75 156.75 126.75
278430 1 87.75 120.75 129.75
278515 1 102.75 123.75 129.75
279239 1 114.75 150.75 129.75
291393 1 96.75 126.75 135.75
771226 1 77.25 122.25 122.25
777789 1 86.25 128.25 125.25
783954 1 101.25 119.25 128.25
790756 1 107.25 134.25 131.25
796995 1 104.25 128.25 134.25
