ITEM: TIMESTEP
66201
ITEM: NUMBER OF ATOMS
16
ITEM: BOX BOUNDS pp pp pp
0 240
0 240
0 240
ITEM: ATOMS id type x y z c_myKE c_myPE
713473 1 97.955 116.986 92.6913 0 -6.82657
725811 1 155.25 97.832 99.0917 0 -6.25432
720105 1 70.3557 124.582 97.8199 0 -6.2551
782121 1 123.35 44.8475 127.798 0 -6.25452
124196 1 105.806 96.2421 52.8359 0 -6.25479
207874 1 99.5369 115.216 94.4622 0 -6.54297
226282 1 124.629 81.3388 104.186 0 -7.06844
226362 1 122.809 83.1598 104.187 0 -7.06124
232763 1 126.048 84.5798 106.694 0 -6.78415
246668 1 80.2758 131.306 115.215 0 -6.60345
253069 1 83.4623 131.402 118.551 0 -6.91129
253148 1 80.3659 134.498 118.551 0 -6.91259
258513 1 99.1085 90.9068 123.326 0 -7.06989
770433 1 97.2858 92.7261 123.329 0 -7.06216
271313 1 99.1077 92.7275 125.148 0 -7.0628
808439 1 116.618 71.9624 140.908 0 -6.25448
