ITEM: TIMESTEP
65217
ITEM: NUMBER OF ATOMS
27
ITEM: BOX BOUNDS pp pp pp
0 240
0 240
0 240
ITEM: ATOMS id type x y z
226999 1 114.75 111.75 105.75
232997 1 108.75 96.75 108.75
232998 1 111.75 96.75 108.75
239478 1 111.75 99.75 111.75
239557 1 108.75 102.75 111.75
239558 1 111.75 102.75 111.75
239633 1 96.75 105.75 111.75
239716 1 105.75 108.75 111.75
246114 1 99.75 108.75 114.75
265151 1 90.75 102.75 123.75
284350 1 87.75 102.75 132.75
284430 1 87.75 105.75 132.75
713163 1 128.25 104.25 95.25
719393 1 98.25 98.25 98.25
725882 1 125.25 101.25 101.25
732036 1 107.25 92.25 104.25
738278 1 113.25 86.25 107.25
744839 1 116.25 92.25 110.25
744997 1 110.25 98.25 110.25
744998 1 113.25 98.25 110.25
745156 1 107.25 104.25 110.25
751396 1 107.25 98.25 113.25
751796 1 107.25 113.25 113.25
757718 1 113.25 95.25 116.25
757873 1 98.25 101.25 116.25
758118 1 113.25 110.25 116.25
796431 1 92.25 107.25 134.25
