ITEM: TIMESTEP
67000
ITEM: NUMBER OF ATOMS
20
ITEM: BOX BOUNDS pp pp pp
0 240
0 240
0 240
ITEM: ATOMS id type x y z
258678 1 111.75 99.75 120.75
258758 1 111.75 102.75 120.75
258838 1 111.75 105.75 120.75
270766 1 135.75 72.75 126.75
277637 1 108.75 90.75 129.75
732356 1 107.25 104.25 104.25
757795 1 104.25 98.25 116.25
757797 1 110.25 98.25 116.25
763955 1 104.25 89.25 119.25
764357 1 110.25 104.25 119.25
764358 1 113.25 104.25 119.25
770277 1 110.25 86.25 122.25
770359 1 116.25 89.25 122.25
770677 1 110.25 101.25 122.25
770758 1 113.25 104.25 122.25
777158 1 113.25 104.25 125.25
783476 1 107.25 101.25 128.25
783556 1 107.25 104.25 128.25
790597 1 110.25 128.25 131.25
796038 1 113.25 92.25 134.25
