ITEM: TIMESTEP
64215
ITEM: NUMBER OF ATOMS
24
ITEM: BOX BOUNDS pp pp pp
0 240
0 240
0 240
ITEM: ATOMS id type x y z
137396 1 105.75 111.75 63.75
200840 1 117.75 90.75 93.75
200919 1 114.75 93.75 93.75
206030 1 87.75 45.75 96.75
206828 1 81.75 75.75 96.75
207239 1 114.75 90.75 96.75
233069 1 84.75 99.75 108.75
239402 1 123.75 96.75 111.75
245808 1 141.75 96.75 114.75
245889 1 144.75 99.75 114.75
252209 1 144.75 96.75 117.75
604030 1 89.25 92.25 44.25
667320 1 119.25 65.25 74.25
667957 1 110.25 89.25 74.25
673640 1 119.25 62.25 77.25
699391 1 92.25 68.25 89.25
731168 1 143.25 59.25 104.25
739237 1 110.25 122.25 107.25
739316 1 107.25 125.25 107.25
744346 1 77.25 74.25 110.25
744988 1 83.25 98.25 110.25
744989 1 86.25 98.25 110.25
745636 1 107.25 122.25 110.25
745717 1 110.25 125.25 110.25
