ITEM: TIMESTEP
68000
ITEM: NUMBER OF ATOMS
19
ITEM: BOX BOUNDS pp pp pp
0 240
0 240
0 240
ITEM: ATOMS id type x y z c_myKE c_myPE
720669 1 85.415 148.658 95.7518 0.0183431 -6.03056
724982 1 63.0033 63.8539 98.5657 0.071442 -7.13136
726194 1 99.2775 113.882 98.9509 0.0619304 -6.89947
726273 1 96.1667 116.928 99.1527 0.289041 -7.02619
239535 1 35.0119 107.259 110.355 0.238482 -6.40615
246505 1 70.1939 121.438 114.749 0.352823 -6.31071
764101 1 56.4316 95.8082 116.844 0.22242 -6.598
770502 1 60.8858 94.7855 121.453 0.219097 -6.24096
770420 1 56.3145 89.5516 123.581 0.182678 -7.59127
776742 1 60.6592 88.4841 124.59 0.0678706 -7.50416
348674 1 97.7621 113.804 162.839 0.103771 -6.66047
214116 1 103.588 109.063 100.482 0.38155 -6.39404
233469 1 83.6108 113.472 107.251 0.352614 -6.25724
239614 1 32.4385 107.036 110.617 0.140305 -5.9497
258423 1 62.3076 89.8763 119.771 0.0177158 -7.15837
258580 1 54.9073 94.2144 121.745 0.108474 -7.15275
271221 1 56.4228 89.9188 126.19 0.125683 -6.83068
329237 1 107.062 102.565 154.663 0.398456 -6.20268
342194 1 99.4706 112.512 161.017 0.0451631 -7.09487
