ITEM: TIMESTEP
68000
ITEM: NUMBER OF ATOMS
19
ITEM: BOX BOUNDS pp pp pp
0 240
0 240
0 240
ITEM: ATOMS id type x y z
233152 1 93.75 102.75 108.75
239216 1 45.75 90.75 111.75
258575 1 42.75 96.75 120.75
278278 1 111.75 114.75 129.75
284353 1 96.75 102.75 132.75
290589 1 84.75 96.75 135.75
290914 1 99.75 108.75 135.75
290918 1 111.75 108.75 135.75
290992 1 93.75 111.75 135.75
309872 1 93.75 99.75 144.75
758273 1 98.25 116.25 116.25
764194 1 101.25 98.25 119.25
783473 1 98.25 101.25 128.25
789786 1 77.25 98.25 131.25
789954 1 101.25 104.25 131.25
815476 1 107.25 101.25 143.25
815549 1 86.25 104.25 143.25
822036 1 107.25 107.25 146.25
822510 1 89.25 125.25 146.25
