ITEM: TIMESTEP
67000
ITEM: NUMBER OF ATOMS
18
ITEM: BOX BOUNDS pp pp pp
0 240
0 240
0 240
ITEM: ATOMS id type x y z c_myKE c_myPE
731883 1 129.617 85.1211 104.17 0.200025 -6.29487
763721 1 121.889 76.1183 120.015 0.0910636 0
770199 1 116.958 80.026 121.462 0.0564574 -6.85907
801165 1 136.13 40.5589 139.434 0.0844132 -6.57354
297239 1 112.234 105.516 143.701 0.339833 -6.37553
821169 1 148.775 72.1953 147.212 0.161834 -5.87489
303639 1 114.751 104.381 146.625 0.171301 -6.33841
846120 1 118.331 46.7249 159.955 0.0588961 -6.54271
853320 1 118.313 78.6902 161.554 0.25955 -5.92358
891325 1 136.102 60.8804 182.283 0.1273 -6.37356
213227 1 77.1447 74.0973 99.6576 0.101872 -6.81835
227081 1 119.778 113.594 103.864 0.0941747 -6.01663
245320 1 118.435 76.8899 116.112 0.046726 -7.02476
258202 1 123.544 78.1481 119.944 0.137715 -8.49845
302851 1 153.395 72.3648 142.005 0.363295 -6.08519
309005 1 132.5 64.3478 145.271 0.237939 -6.82883
310197 1 109.051 110.402 145.365 0.0705604 -6.67745
335576 1 169.524 101.064 160.327 0.031004 -6.3967
