ITEM: TIMESTEP
67155
ITEM: NUMBER OF ATOMS
18
ITEM: BOX BOUNDS pp pp pp
0 240
0 240
0 240
ITEM: ATOMS id type x y z
252191 1 90.75 96.75 117.75
265004 1 129.75 96.75 123.75
271555 1 102.75 102.75 126.75
277643 1 126.75 90.75 129.75
290754 1 99.75 102.75 135.75
302445 1 132.75 60.75 141.75
302446 1 135.75 60.75 141.75
719466 1 77.25 101.25 98.25
725872 1 95.25 101.25 101.25
738427 1 80.25 92.25 107.25
738513 1 98.25 95.25 107.25
744833 1 98.25 92.25 110.25
744987 1 80.25 98.25 110.25
751317 1 110.25 95.25 113.25
776045 1 134.25 62.25 125.25
783636 1 107.25 107.25 128.25
796043 1 128.25 92.25 134.25
802044 1 131.25 77.25 137.25
