ITEM: TIMESTEP
67000
ITEM: NUMBER OF ATOMS
24
ITEM: BOX BOUNDS pp pp pp
0 240
0 240
0 240
ITEM: ATOMS id type x y z
164035 1 102.75 150.75 75.75
182045 1 132.75 105.75 84.75
182207 1 138.75 111.75 84.75
182765 1 132.75 132.75 84.75
188367 1 138.75 102.75 87.75
188527 1 138.75 108.75 87.75
188606 1 135.75 111.75 87.75
194926 1 135.75 108.75 90.75
226289 1 144.75 84.75 105.75
232600 1 117.75 81.75 108.75
283402 1 123.75 66.75 132.75
611414 1 161.25 128.25 47.25
681166 1 137.25 104.25 80.25
687486 1 137.25 101.25 83.25
687565 1 134.25 104.25 83.25
687567 1 140.25 104.25 83.25
688285 1 134.25 131.25 83.25
694045 1 134.25 107.25 86.25
694047 1 140.25 107.25 86.25
700365 1 134.25 104.25 89.25
702053 1 158.25 167.25 89.25
706448 1 143.25 92.25 92.25
720024 1 71.25 122.25 98.25
763966 1 137.25 89.25 119.25
