ITEM: TIMESTEP
65000
ITEM: NUMBER OF ATOMS
15
ITEM: BOX BOUNDS pp pp pp
0 240
0 240
0 240
ITEM: ATOMS id type x y z
182996 1 105.75 141.75 84.75
207559 1 114.75 102.75 96.75
214351 1 90.75 117.75 99.75
239710 1 87.75 108.75 111.75
252591 1 90.75 111.75 117.75
701315 1 104.25 140.25 89.25
713319 1 116.25 110.25 95.25
751793 1 98.25 113.25 113.25
751797 1 110.25 113.25 113.25
758115 1 104.25 110.25 116.25
758193 1 98.25 113.25 116.25
770914 1 101.25 110.25 122.25
771070 1 89.25 116.25 122.25
777151 1 92.25 104.25 125.25
783712 1 95.25 110.25 128.25
