ITEM: TIMESTEP
66000
ITEM: NUMBER OF ATOMS
23
ITEM: BOX BOUNDS pp pp pp
0 240
0 240
0 240
ITEM: ATOMS id type x y z
182116 1 105.75 108.75 84.75
196196 1 105.75 156.75 90.75
201315 1 102.75 108.75 93.75
207714 1 99.75 108.75 96.75
208111 1 90.75 123.75 96.75
208586 1 75.75 141.75 96.75
209234 1 99.75 165.75 96.75
214511 1 90.75 123.75 99.75
226756 1 105.75 102.75 105.75
226837 1 108.75 105.75 105.75
233234 1 99.75 105.75 108.75
687716 1 107.25 110.25 83.25
695232 1 95.25 152.25 86.25
701542 1 65.25 149.25 89.25
707944 1 71.25 149.25 92.25
714675 1 104.25 161.25 95.25
719393 1 98.25 98.25 98.25
719796 1 107.25 113.25 98.25
732832 1 95.25 122.25 104.25
744996 1 107.25 98.25 110.25
751475 1 104.25 101.25 113.25
758034 1 101.25 107.25 116.25
777719 1 116.25 125.25 125.25
