ITEM: TIMESTEP
66000
ITEM: NUMBER OF ATOMS
16
ITEM: BOX BOUNDS pp pp pp
0 240
0 240
0 240
ITEM: ATOMS id type x y z
207077 1 108.75 84.75 96.75
213236 1 105.75 75.75 99.75
213316 1 105.75 78.75 99.75
214030 1 87.75 105.75 99.75
266036 1 105.75 135.75 123.75
284356 1 105.75 102.75 132.75
284996 1 105.75 126.75 132.75
285156 1 105.75 132.75 132.75
719312 1 95.25 95.25 98.25
751151 1 92.25 89.25 113.25
757792 1 95.25 98.25 116.25
764274 1 101.25 101.25 119.25
777631 1 92.25 122.25 125.25
790355 1 104.25 119.25 131.25
796266 1 77.25 101.25 134.25
809157 1 110.25 104.25 140.25
