ITEM: TIMESTEP
67170
ITEM: NUMBER OF ATOMS
25
ITEM: BOX BOUNDS pp pp pp
0 240
0 240
0 240
ITEM: ATOMS id type x y z
207558 1 111.75 102.75 96.75
220275 1 102.75 99.75 102.75
226756 1 105.75 102.75 105.75
226761 1 120.75 102.75 105.75
233160 1 117.75 102.75 108.75
239556 1 105.75 102.75 111.75
252516 1 105.75 108.75 117.75
258597 1 108.75 96.75 120.75
732196 1 107.25 98.25 104.25
732276 1 107.25 101.25 104.25
738756 1 107.25 104.25 107.25
744755 1 104.25 89.25 110.25
744915 1 104.25 95.25 110.25
744916 1 107.25 95.25 110.25
751556 1 107.25 104.25 113.25
751636 1 107.25 107.25 113.25
757636 1 107.25 92.25 116.25
757716 1 107.25 95.25 116.25
757717 1 110.25 95.25 116.25
764192 1 95.25 98.25 119.25
770755 1 104.25 104.25 122.25
776997 1 110.25 98.25 125.25
783556 1 107.25 104.25 128.25
809478 1 113.25 116.25 140.25
822114 1 101.25 110.25 146.25
