ITEM: TIMESTEP
66000
ITEM: NUMBER OF ATOMS
14
ITEM: BOX BOUNDS pp pp pp
0 240
0 240
0 240
ITEM: ATOMS id type x y z
215004 1 129.75 141.75 99.75
239640 1 117.75 105.75 111.75
245395 1 102.75 81.75 114.75
246118 1 111.75 108.75 114.75
258839 1 114.75 105.75 120.75
265239 1 114.75 105.75 123.75
675479 1 116.25 131.25 77.25
726038 1 113.25 107.25 101.25
726280 1 119.25 116.25 101.25
726360 1 119.25 119.25 101.25
751719 1 116.25 110.25 113.25
764360 1 119.25 104.25 119.25
771079 1 116.25 116.25 122.25
783557 1 110.25 104.25 128.25
