ITEM: TIMESTEP
66000
ITEM: NUMBER OF ATOMS
22
ITEM: BOX BOUNDS pp pp pp
0 240
0 240
0 240
ITEM: ATOMS id type x y z
188436 1 105.75 105.75 87.75
201150 1 87.75 102.75 93.75
220929 1 144.75 123.75 102.75
221010 1 147.75 126.75 102.75
241084 1 129.75 159.75 111.75
265399 1 114.75 111.75 123.75
265479 1 114.75 114.75 123.75
265480 1 117.75 114.75 123.75
271800 1 117.75 111.75 126.75
278352 1 93.75 117.75 129.75
317237 1 108.75 135.75 147.75
675008 1 143.25 113.25 77.25
675089 1 146.25 116.25 77.25
681488 1 143.25 116.25 80.25
764598 1 113.25 113.25 119.25
764679 1 116.25 116.25 119.25
771078 1 113.25 116.25 122.25
777479 1 116.25 116.25 125.25
783799 1 116.25 113.25 128.25
783880 1 119.25 116.25 128.25
796289 1 146.25 101.25 134.25
796838 1 113.25 122.25 134.25
