ITEM: TIMESTEP
67000
ITEM: NUMBER OF ATOMS
25
ITEM: BOX BOUNDS pp pp pp
0 240
0 240
0 240
ITEM: ATOMS id type x y z
226834 1 99.75 105.75 105.75
227071 1 90.75 114.75 105.75
233155 1 102.75 102.75 108.75
291080 1 117.75 114.75 135.75
336277 1 108.75 129.75 156.75
354918 1 111.75 108.75 165.75
713311 1 92.25 110.25 95.25
719312 1 95.25 95.25 98.25
719472 1 95.25 101.25 98.25
719474 1 101.25 101.25 98.25
719475 1 104.25 101.25 98.25
719624 1 71.25 107.25 98.25
725869 1 86.25 101.25 101.25
732355 1 104.25 104.25 104.25
732432 1 95.25 107.25 104.25
732433 1 98.25 107.25 104.25
732593 1 98.25 113.25 104.25
738833 1 98.25 107.25 107.25
764433 1 98.25 107.25 119.25
790516 1 107.25 125.25 131.25
834838 1 113.25 107.25 152.25
835159 1 116.25 119.25 152.25
835316 1 107.25 125.25 152.25
841078 1 113.25 101.25 155.25
841156 1 107.25 104.25 155.25
