ITEM: TIMESTEP
67000
ITEM: NUMBER OF ATOMS
25
ITEM: BOX BOUNDS pp pp pp
0 240
0 240
0 240
ITEM: ATOMS id type x y z
195631 1 90.75 135.75 90.75
245395 1 102.75 81.75 114.75
245476 1 105.75 84.75 114.75
245557 1 108.75 87.75 114.75
251956 1 105.75 87.75 117.75
278597 1 108.75 126.75 129.75
284917 1 108.75 123.75 132.75
284996 1 105.75 126.75 132.75
296983 1 66.75 96.75 138.75
298033 1 96.75 135.75 138.75
317161 1 120.75 132.75 147.75
341238 1 111.75 75.75 159.75
386692 1 153.75 99.75 180.75
425557 1 108.75 117.75 198.75
642830 1 89.25 107.25 62.25
649542 1 65.25 119.25 65.25
700025 1 74.25 92.25 89.25
706345 1 74.25 89.25 92.25
706426 1 77.25 92.25 92.25
757486 1 137.25 86.25 116.25
757939 1 56.25 104.25 116.25
783401 1 122.25 98.25 128.25
784196 1 107.25 128.25 128.25
809955 1 104.25 134.25 140.25
917964 1 131.25 104.25 191.25
