ITEM: TIMESTEP
66000
ITEM: NUMBER OF ATOMS
13
ITEM: BOX BOUNDS pp pp pp
0 240
0 240
0 240
ITEM: ATOMS id type x y z
207236 1 105.75 90.75 96.75
245797 1 108.75 96.75 114.75
245878 1 111.75 99.75 114.75
258836 1 105.75 105.75 120.75
258837 1 108.75 105.75 120.75
264758 1 111.75 87.75 123.75
284198 1 111.75 96.75 132.75
732356 1 107.25 104.25 104.25
764596 1 107.25 113.25 119.25
770996 1 107.25 113.25 122.25
777156 1 107.25 104.25 125.25
777315 1 104.25 110.25 125.25
777318 1 113.25 110.25 125.25
