ITEM: TIMESTEP
66000
ITEM: NUMBER OF ATOMS
22
ITEM: BOX BOUNDS pp pp pp
0 240
0 240
0 240
ITEM: ATOMS id type x y z
220356 1 105.75 102.75 102.75
239880 1 117.75 114.75 111.75
252518 1 111.75 108.75 117.75
258832 1 93.75 105.75 120.75
258834 1 99.75 105.75 120.75
265232 1 93.75 105.75 123.75
265471 1 90.75 114.75 123.75
271554 1 99.75 102.75 126.75
271630 1 87.75 105.75 126.75
277794 1 99.75 96.75 129.75
277873 1 96.75 99.75 129.75
278111 1 90.75 108.75 129.75
278113 1 96.75 108.75 129.75
284030 1 87.75 90.75 132.75
712269 1 86.25 71.25 95.25
744759 1 116.25 89.25 110.25
757632 1 95.25 92.25 116.25
770830 1 89.25 107.25 122.25
783633 1 98.25 107.25 128.25
790027 1 80.25 107.25 131.25
790029 1 86.25 107.25 131.25
790107 1 80.25 110.25 131.25
