ITEM: TIMESTEP
66000
ITEM: NUMBER OF ATOMS
15
ITEM: BOX BOUNDS pp pp pp
0 240
0 240
0 240
ITEM: ATOMS id type x y z
233389 1 84.75 111.75 108.75
240037 1 108.75 120.75 111.75
246116 1 105.75 108.75 114.75
246356 1 105.75 117.75 114.75
252513 1 96.75 108.75 117.75
252598 1 111.75 111.75 117.75
271954 1 99.75 117.75 126.75
713557 1 110.25 119.25 95.25
738912 1 95.25 110.25 107.25
745395 1 104.25 113.25 110.25
758271 1 92.25 116.25 116.25
764596 1 107.25 113.25 119.25
764671 1 92.25 116.25 119.25
771639 1 116.25 137.25 122.25
796668 1 83.25 116.25 134.25
