ITEM: TIMESTEP
67000
ITEM: NUMBER OF ATOMS
11
ITEM: BOX BOUNDS pp pp pp
0 240
0 240
0 240
ITEM: ATOMS id type x y z c_myKE c_myPE
200762 1 121.027 84.967 92.7888 0.258756 -6.28465
226603 1 121.544 94.9173 108.37 0.291215 -6.71351
239321 1 124.272 94.9683 107.357 0.106141 -7.33457
745081 1 120.169 94.7481 111.508 0.113196 -6.69784
258427 1 75.6696 86.3538 121.566 0.288454 -6.2453
841170 1 151.939 104.329 158.709 0.00321741 -6.96699
207960 1 116.41 116.565 96.1492 0.0284491 -6.40423
220691 1 153.464 112.02 102.824 0.0216192 -5.73935
258777 1 172.608 99.4102 121.697 0.352439 -6.7676
329252 1 156.682 105.61 157.01 0.359024 -7.51651
335732 1 156.794 108.818 160.172 0.0338147 -7.13454
