ITEM: TIMESTEP
68414
ITEM: NUMBER OF ATOMS
23
ITEM: BOX BOUNDS pp pp pp
0 240
0 240
0 240
ITEM: ATOMS id type x y z c_myKE c_myPE
713884 1 132.927 134.173 92.693 0 -6.25424
219872 1 89.5128 83.1423 101.03 0 -6.25456
752200 1 118.379 127.677 111.998 0 -6.54267
752838 1 113.791 153.307 111.71 0 -6.82247
778127 1 142.489 142.506 126.544 0 -6.25329
791144 1 67.1771 152.078 130.974 0 -6.25491
798504 1 67.1801 190.355 134.161 0 -6.25399
822751 1 89.5155 136.115 146.919 0 -6.25236
822115 1 104.215 108.66 148.881 0 -6.25326
848746 1 75.5032 152.072 159.692 0 -6.25732
861709 1 83.1299 156.505 168.016 0 -6.25682
158759 1 115.38 198.332 68.7776 0 -6.25491
176511 1 87.9079 138.972 80.2843 0 -6.25519
214434 1 99.5377 119.887 99.3507 0 -6.56436
739075 1 100.547 115.304 103.933 0 -6.56203
227008 1 144.087 112.197 107.053 0 -6.25479
745798 1 115.216 128.252 108.836 0 -6.54292
240918 1 112.02 155.077 110.125 0 -6.54459
266436 1 105.793 151.683 123.024 0 -6.27711
266512 1 93.025 158.108 124.972 0 -6.27039
286185 1 68.7509 174.062 134.544 0 -6.2801
304114 1 99.28 125.557 143.937 0 -6.43365
318841 1 121.751 201.513 150.465 0 -6.25411
