ITEM: TIMESTEP
67000
ITEM: NUMBER OF ATOMS
20
ITEM: BOX BOUNDS pp pp pp
0 240
0 240
0 240
ITEM: ATOMS id type x y z
170343 1 66.75 147.75 78.75
176422 1 63.75 135.75 81.75
176662 1 63.75 144.75 81.75
182588 1 81.75 126.75 84.75
189233 1 96.75 135.75 87.75
194994 1 99.75 111.75 90.75
233396 1 105.75 111.75 108.75
239713 1 96.75 108.75 111.75
259074 1 99.75 114.75 120.75
643865 1 74.25 146.25 62.25
688582 1 65.25 143.25 83.25
707232 1 95.25 122.25 92.25
713471 1 92.25 116.25 95.25
719392 1 95.25 98.25 98.25
720273 1 98.25 131.25 98.25
726033 1 98.25 107.25 101.25
726509 1 86.25 125.25 101.25
738992 1 95.25 113.25 107.25
745315 1 104.25 110.25 110.25
758113 1 98.25 110.25 116.25
