ITEM: TIMESTEP
67097
ITEM: NUMBER OF ATOMS
16
ITEM: BOX BOUNDS pp pp pp
0 240
0 240
0 240
ITEM: ATOMS id type x y z
195557 1 108.75 132.75 90.75
207393 1 96.75 96.75 96.75
220360 1 117.75 102.75 102.75
220519 1 114.75 108.75 102.75
220678 1 111.75 114.75 102.75
227318 1 111.75 123.75 105.75
233316 1 105.75 108.75 108.75
233397 1 108.75 111.75 108.75
247148 1 81.75 147.75 114.75
694280 1 119.25 116.25 86.25
713238 1 113.25 107.25 95.25
719638 1 113.25 107.25 98.25
719797 1 110.25 113.25 98.25
726358 1 113.25 119.25 101.25
745871 1 92.25 131.25 110.25
752430 1 89.25 137.25 113.25
