ITEM: TIMESTEP
65141
ITEM: NUMBER OF ATOMS
25
ITEM: BOX BOUNDS pp pp pp
0 240
0 240
0 240
ITEM: ATOMS id type x y z
182352 1 93.75 117.75 84.75
239555 1 102.75 102.75 111.75
239639 1 114.75 105.75 111.75
239641 1 120.75 105.75 111.75
239963 1 126.75 117.75 111.75
240043 1 126.75 120.75 111.75
246198 1 111.75 111.75 114.75
252359 1 114.75 102.75 117.75
252435 1 102.75 105.75 117.75
252601 1 120.75 111.75 117.75
681077 1 110.25 101.25 80.25
687792 1 95.25 113.25 83.25
687878 1 113.25 116.25 83.25
694432 1 95.25 122.25 86.25
694591 1 92.25 128.25 86.25
738675 1 104.25 101.25 107.25
745237 1 110.25 107.25 110.25
751719 1 116.25 110.25 113.25
751880 1 119.25 116.25 113.25
751957 1 110.25 119.25 113.25
752359 1 116.25 134.25 113.25
758038 1 113.25 107.25 116.25
764283 1 128.25 101.25 119.25
770841 1 122.25 107.25 122.25
776600 1 119.25 83.25 125.25
