ITEM: TIMESTEP
66000
ITEM: NUMBER OF ATOMS
22
ITEM: BOX BOUNDS pp pp pp
0 240
0 240
0 240
ITEM: ATOMS id type x y z c_myKE c_myPE
718283 1 127.555 51.2437 96.1684 0.0786654 -6.5656
719552 1 92.709 102.649 94.7316 0.161976 -7.19599
726602 1 126.873 127.699 101.066 0.0473202 -6.87366
732922 1 124.886 126.324 105.464 0.200944 -6.64143
252040 1 118.08 91.5922 117.261 0.117345 -6.67031
751399 1 114.976 94.5935 116.704 0.150194 -7.64255
258601 1 118.292 94.3251 120.107 0.0514108 -7.00778
283965 1 131.034 88.0892 142.477 0.292261 -6.55297
815244 1 130.907 91.5219 145.721 0.0715864 -7.24679
828044 1 132.841 88.0099 150.239 0.165335 -6.7209
322446 1 139.428 88.1091 153.446 0.0265304 -6.42185
156768 1 142.081 118.242 69.0305 0.0231762 -6.46349
201152 1 91.52 102.377 90.7131 0.214187 -7.3081
713152 1 90.9152 104.127 93.0518 0.155414 -7.34008
201153 1 93.5784 102.796 92.4181 0.0606134 -7.93043
213953 1 94.4341 100.746 96.419 0.0597087 -7.47632
227323 1 127.975 123.096 105.627 0.0717157 -6.9432
252200 1 116.915 96.3867 118.354 0.105054 -6.58856
257645 1 133.081 56.1252 121.841 0.0364039 -6.54262
264044 1 129.082 56.052 124.647 0.0914509 -8.67128
315493 1 160.525 67.7844 150.465 0.141216 -6.31694
316127 1 137.882 89.8164 151.73 0.0856874 -7.20815
