ITEM: TIMESTEP
66277
ITEM: NUMBER OF ATOMS
15
ITEM: BOX BOUNDS pp pp pp
0 240
0 240
0 240
ITEM: ATOMS id type x y z c_myKE c_myPE
233316 1 102.279 107.411 110.603 0 -6.25389
777225 1 70.3787 107.412 124.611 0 -6.25516
284829 1 81.822 119.96 130.939 0 -6.7592
789882 1 124.6 99.0889 132.93 0 -6.25957
796829 1 81.7888 120.322 134.24 0 -6.92158
296588 1 78.7018 76.7543 140.553 0 -6.25408
803627 1 78.8307 139.206 139.217 0 -6.30354
859717 1 110.606 76.7573 168.021 0 -6.25459
873316 1 107.414 108.657 174.401 0 -6.25486
175392 1 93.0446 94.3122 78.3631 0 -6.82143
175471 1 89.789 97.5682 78.2373 0 -6.548
258040 1 116.634 70.7288 121.765 0 -6.25445
284749 1 83.5708 118.466 132.7 0 -7.0465
285228 1 78.4317 137.609 132.491 0 -6.24825
308764 1 131.339 52.8357 147.289 0 -6.25484
