ITEM: TIMESTEP
66254
ITEM: NUMBER OF ATOMS
21
ITEM: BOX BOUNDS pp pp pp
0 240
0 240
0 240
ITEM: ATOMS id type x y z c_myKE c_myPE
675803 1 127.796 143.742 75.5124 0 -6.25417
733343 1 193.539 142.501 104.227 0 -6.25418
738440 1 120.147 89.493 107.41 0 -6.26293
763729 1 146.939 78.697 118.226 0 -6.25405
770519 1 120.198 97.8527 118.185 0 -6.83035
258679 1 116.812 101.165 121.567 0 -6.59292
784029 1 83.1378 121.408 127.789 0 -6.25462
808206 1 139.314 63.9903 142.506 0 -6.2537
809487 1 142.499 116.973 142.501 0 -6.25627
815151 1 91.4539 86.3118 145.686 0 -6.25528
119417 1 172.805 160.043 49.6495 0 -6.2545
220777 1 172.803 118.574 102.631 0 -6.25459
232925 1 134.522 93.0568 107.057 0 -6.25223
247009 1 147.287 144.094 113.445 0 -6.25451
764119 1 118.454 99.6476 119.925 0 -6.98061
271178 1 175.995 84.7314 126.203 0 -6.25443
303243 1 126.19 89.8429 142.148 0 -6.25389
342202 1 124.883 112.312 163.108 0 -6.67051
348522 1 124.726 109.031 166.318 0 -6.73504
348603 1 128.168 112.219 166.527 0 -7.64755
354923 1 128.106 108.995 169.591 0 -6.99992
