ITEM: TIMESTEP
67000
ITEM: NUMBER OF ATOMS
14
ITEM: BOX BOUNDS pp pp pp
0 240
0 240
0 240
ITEM: ATOMS id type x y z
194438 1 111.75 90.75 90.75
201242 1 123.75 105.75 93.75
207321 1 120.75 93.75 96.75
207322 1 123.75 93.75 96.75
207394 1 99.75 96.75 96.75
207644 1 129.75 105.75 96.75
207881 1 120.75 114.75 96.75
214364 1 129.75 117.75 99.75
220440 1 117.75 105.75 102.75
693963 1 128.25 104.25 86.25
706682 1 125.25 101.25 92.25
719640 1 119.25 107.25 98.25
732841 1 122.25 122.25 104.25
771402 1 125.25 128.25 122.25
