ITEM: TIMESTEP
70000
ITEM: NUMBER OF ATOMS
19
ITEM: BOX BOUNDS pp pp pp
0 240
0 240
0 240
ITEM: ATOMS id type x y z c_myKE c_myPE
239553 1 97.5586 98.838 110.303 0.0424611 -7.22876
765462 1 62.973 149.007 118.141 0.111203 -6.78741
771074 1 101.142 116.856 123.619 0.200362 -6.38927
777554 1 101.126 120.05 126.833 0.201184 -7.19242
784034 1 101.423 123.531 129.764 0.0686375 -6.90853
784113 1 97.8119 126.622 129.788 0.235796 -7.28787
822828 1 81.8514 139.312 146.883 0.235871 -6.53085
842976 1 43.5337 177.513 158.292 0.266853 -6.20477
868175 1 38.2683 159.829 169.507 0.0758244 -6.61786
369529 1 21.153 180.889 177.793 0.290379 -6.69595
181320 1 118.509 77.5646 81.8171 0.163521 -5.87954
182510 1 84.7976 123.06 81.7919 0.0475821 -6.93488
182591 1 88.1089 126.048 81.3448 0.168102 -7.26185
188519 1 113.436 109.122 86.5723 0.454759 -6.38725
745072 1 95.8383 100.758 110.168 0.0256738 -6.95524
259863 1 64.2877 146.9 119.896 0.180377 -6.38343
848815 1 36.7775 156.896 163.765 0.218691 -6.33913
343454 1 35.6145 160.315 166.168 0.0836563 -7.16409
381691 1 26.1922 156.992 182.524 0.20044 -5.97708
