ITEM: TIMESTEP
67000
ITEM: NUMBER OF ATOMS
19
ITEM: BOX BOUNDS pp pp pp
0 240
0 240
0 240
ITEM: ATOMS id type x y z c_myKE c_myPE
693878 1 113.613 101.152 83.0171 0.321636 -6.30713
784349 1 85.0876 136.32 130.088 0.129607 -6.17286
790830 1 88.5214 138.845 131.262 0.140668 -6.61676
820917 1 108.498 60.6249 146.911 0.197 -6.55323
827960 1 123.388 85.3453 153.321 0.155619 -7.77831
834361 1 119.74 85.4646 156.758 0.172477 -5.96241
188359 1 115.573 102.935 84.535 0.246879 -6.75103
213877 1 106.764 99.5967 97.5405 0.318019 -6.69382
719798 1 113.423 108.912 97.7354 0.0532664 -6.25642
226592 1 91.3369 92.9532 103.802 0.0135376 -6.40384
240110 1 75.3993 126.079 110.443 0.130618 -6.99132
240187 1 75.4511 127.97 112.286 0.0196606 -7.34857
240266 1 72.2237 131.356 111.969 0.100495 -6.66814
297165 1 135.868 102.615 138.811 0.0471744 -6.54378
303314 1 97.7869 90.2177 142.121 0.6226 -6.71888
303565 1 134.478 100.616 140.73 0.191214 -7.23176
809644 1 132.471 126.273 142.158 0.0160084 -6.78336
328682 1 123.013 83.4894 155.334 0.180551 -6.81137
367888 1 143.979 113.485 176.121 0.014199 -6.64711
