ITEM: TIMESTEP
77227
ITEM: NUMBER OF ATOMS
29
ITEM: BOX BOUNDS pp pp pp
0 240
0 240
0 240
ITEM: ATOMS id type x y z
213714 1 99.75 93.75 99.75
233077 1 108.75 99.75 108.75
233157 1 108.75 102.75 108.75
246272 1 93.75 114.75 114.75
284921 1 120.75 123.75 132.75
291319 1 114.75 123.75 135.75
311008 1 141.75 141.75 144.75
323890 1 147.75 144.75 150.75
369178 1 171.75 162.75 171.75
369502 1 183.75 174.75 171.75
388778 1 171.75 177.75 180.75
712916 1 107.25 95.25 95.25
745155 1 104.25 104.25 110.25
751477 1 110.25 101.25 113.25
751877 1 110.25 116.25 113.25
758117 1 110.25 110.25 116.25
758431 1 92.25 122.25 116.25
764594 1 101.25 113.25 119.25
790522 1 125.25 125.25 131.25
803566 1 137.25 134.25 137.25
829409 1 146.25 143.25 149.25
835810 1 149.25 143.25 152.25
855412 1 155.25 158.25 161.25
881659 1 176.25 182.25 173.25
888222 1 185.25 188.25 176.25
894381 1 182.25 179.25 179.25
900940 1 179.25 185.25 182.25
933428 1 203.25 203.25 197.25
933510 1 209.25 206.25 197.25
