ITEM: TIMESTEP
66249
ITEM: NUMBER OF ATOMS
17
ITEM: BOX BOUNDS pp pp pp
0 240
0 240
0 240
ITEM: ATOMS id type x y z c_myKE c_myPE
649965 1 136.123 134.174 60.8057 0 -6.2544
726034 1 99.1552 105.3 101.164 0 -7.41661
726113 1 96.0098 108.659 100.762 0 -6.43679
732433 1 95.6685 105.628 104.102 0 -7.68501
732514 1 99.2378 108.496 104.198 0 -7.23537
738913 1 95.8827 108.627 107.448 0 -7.09961
757967 1 142.491 102.291 115.043 0 -6.82044
758046 1 139.238 105.547 114.908 0 -6.55312
752366 1 140.561 134.185 113.789 0 -6.25385
789716 1 105.412 92.6546 131.46 0 -6.96519
277715 1 102.001 94.4334 129.48 0 -7.24022
809085 1 136.291 99.2659 141.058 0 -7.86445
303565 1 134.402 99.3803 142.798 0 -7.24791
309802 1 126.433 94.5197 146.757 0 -6.30938
220515 1 100.755 107.036 102.511 0 -7.07067
789635 1 105.619 90.8023 129.647 0 -7.30797
290767 1 138.613 100.687 137.705 0 -6.64652
