ITEM: TIMESTEP
66000
ITEM: NUMBER OF ATOMS
14
ITEM: BOX BOUNDS pp pp pp
0 240
0 240
0 240
ITEM: ATOMS id type x y z
245789 1 84.75 96.75 114.75
245876 1 105.75 99.75 114.75
246107 1 78.75 108.75 114.75
246111 1 90.75 108.75 114.75
252511 1 90.75 108.75 117.75
271313 1 96.75 93.75 126.75
277877 1 108.75 99.75 129.75
284596 1 105.75 111.75 132.75
758747 1 80.25 134.25 116.25
764276 1 107.25 101.25 119.25
771388 1 83.25 128.25 122.25
776830 1 89.25 92.25 125.25
777478 1 113.25 116.25 125.25
803162 1 125.25 119.25 137.25
