ITEM: TIMESTEP
65240
ITEM: NUMBER OF ATOMS
14
ITEM: BOX BOUNDS pp pp pp
0 240
0 240
0 240
ITEM: ATOMS id type x y z
200997 1 108.75 96.75 93.75
201004 1 129.75 96.75 93.75
201245 1 132.75 105.75 93.75
207476 1 105.75 99.75 96.75
220516 1 105.75 108.75 102.75
220517 1 108.75 108.75 102.75
226755 1 102.75 102.75 105.75
706361 1 122.25 89.25 92.25
706919 1 116.25 110.25 92.25
706997 1 110.25 113.25 92.25
713158 1 113.25 104.25 95.25
745071 1 92.25 101.25 110.25
757470 1 89.25 86.25 116.25
764757 1 110.25 119.25 119.25
