ITEM: TIMESTEP
68165
ITEM: NUMBER OF ATOMS
22
ITEM: BOX BOUNDS pp pp pp
0 240
0 240
0 240
ITEM: ATOMS id type x y z
252432 1 93.75 105.75 117.75
258831 1 90.75 105.75 120.75
322674 1 99.75 99.75 150.75
322753 1 96.75 102.75 150.75
328994 1 99.75 96.75 153.75
329073 1 96.75 99.75 153.75
361244 1 129.75 105.75 168.75
706834 1 101.25 107.25 92.25
706913 1 98.25 110.25 92.25
718529 1 146.25 65.25 98.25
725732 1 155.25 95.25 101.25
751796 1 107.25 113.25 113.25
758116 1 107.25 110.25 116.25
758195 1 104.25 113.25 116.25
764515 1 104.25 110.25 119.25
822427 1 80.25 122.25 146.25
840993 1 98.25 98.25 155.25
860827 1 80.25 122.25 164.25
873001 1 122.25 98.25 170.25
892434 1 101.25 107.25 179.25
892513 1 98.25 110.25 179.25
898831 1 92.25 107.25 182.25
