ITEM: TIMESTEP
66000
ITEM: NUMBER OF ATOMS
11
ITEM: BOX BOUNDS pp pp pp
0 240
0 240
0 240
ITEM: ATOMS id type x y z c_myKE c_myPE
617552 1 94.5667 120.332 44.3807 0.451046 -6.24447
764580 1 56.1493 113.988 120.427 0.181848 -6.65804
771870 1 86.1355 146.945 123.299 0.326922 -6.79322
784448 1 145.569 137.506 127.977 0.150331 -5.69936
790600 1 120.169 127.615 133.201 0.00841868 -6.81111
175552 1 94.342 102.633 80.2035 0.294977 -6.08403
200922 1 124.999 93.1026 89.9857 0.136567 -6.77485
227641 1 119.774 135.642 104.096 0.282993 -7.65337
738913 1 99.7075 107.033 105.804 0.182148 -6.54463
234042 1 123.216 135.388 106.93 0.19957 -6.96917
245710 1 86.9462 91.305 113.629 0.11855 -6.24852
