ITEM: TIMESTEP
66000
ITEM: NUMBER OF ATOMS
16
ITEM: BOX BOUNDS pp pp pp
0 240
0 240
0 240
ITEM: ATOMS id type x y z
194600 1 117.75 96.75 90.75
201239 1 114.75 105.75 93.75
214045 1 132.75 105.75 99.75
220037 1 108.75 90.75 102.75
220847 1 138.75 120.75 102.75
226837 1 108.75 105.75 105.75
232370 1 147.75 72.75 108.75
232921 1 120.75 93.75 108.75
239398 1 111.75 96.75 111.75
246124 1 129.75 108.75 114.75
252199 1 114.75 96.75 117.75
713000 1 119.25 98.25 95.25
725554 1 101.25 89.25 101.25
732039 1 116.25 92.25 104.25
738601 1 122.25 98.25 107.25
745240 1 119.25 107.25 110.25
