ITEM: TIMESTEP
67318
ITEM: NUMBER OF ATOMS
19
ITEM: BOX BOUNDS pp pp pp
0 240
0 240
0 240
ITEM: ATOMS id type x y z
213635 1 102.75 90.75 99.75
264827 1 78.75 90.75 123.75
290524 1 129.75 93.75 135.75
297005 1 132.75 96.75 138.75
297470 1 87.75 114.75 138.75
334664 1 69.75 69.75 156.75
706606 1 137.25 98.25 92.25
763721 1 122.25 80.25 119.25
771556 1 107.25 134.25 122.25
783870 1 89.25 116.25 128.25
783951 1 92.25 119.25 128.25
796124 1 131.25 95.25 134.25
802524 1 131.25 95.25 137.25
802604 1 131.25 98.25 137.25
820991 1 92.25 68.25 146.25
827798 1 113.25 83.25 149.25
847551 1 92.25 104.25 158.25
879470 1 89.25 101.25 173.25
884675 1 104.25 56.25 176.25
