ITEM: TIMESTEP
66281
ITEM: NUMBER OF ATOMS
18
ITEM: BOX BOUNDS pp pp pp
0 240
0 240
0 240
ITEM: ATOMS id type x y z
176609 1 144.75 141.75 81.75
226913 1 96.75 108.75 105.75
245882 1 123.75 99.75 114.75
252363 1 126.75 102.75 117.75
265005 1 132.75 96.75 123.75
271325 1 132.75 93.75 126.75
354670 1 87.75 99.75 165.75
674192 1 95.25 83.25 77.25
751401 1 122.25 98.25 113.25
757881 1 122.25 101.25 116.25
757882 1 125.25 101.25 116.25
770119 1 116.25 80.25 122.25
770683 1 128.25 101.25 122.25
777003 1 128.25 98.25 125.25
783325 1 134.25 95.25 128.25
790203 1 128.25 113.25 131.25
796602 1 125.25 113.25 134.25
840606 1 137.25 83.25 155.25
