ITEM: TIMESTEP
66281
ITEM: NUMBER OF ATOMS
18
ITEM: BOX BOUNDS pp pp pp
0 240
0 240
0 240
ITEM: ATOMS id type x y z
207399 1 114.75 96.75 96.75
207557 1 108.75 102.75 96.75
207560 1 117.75 102.75 96.75
226598 1 111.75 96.75 105.75
232838 1 111.75 90.75 108.75
232842 1 123.75 90.75 108.75
232998 1 111.75 96.75 108.75
239236 1 105.75 90.75 111.75
245638 1 111.75 90.75 114.75
258599 1 114.75 96.75 120.75
738522 1 125.25 95.25 107.25
738597 1 110.25 98.25 107.25
751160 1 119.25 89.25 113.25
751234 1 101.25 92.25 113.25
751393 1 98.25 98.25 113.25
751395 1 104.25 98.25 113.25
751716 1 107.25 110.25 113.25
757797 1 110.25 98.25 116.25
