ITEM: TIMESTEP
66000
ITEM: NUMBER OF ATOMS
14
ITEM: BOX BOUNDS pp pp pp
0 240
0 240
0 240
ITEM: ATOMS id type x y z c_myKE c_myPE
649145 1 70.5499 104.567 60.7373 0.0323883 -6.65879
650201 1 123.304 145.689 60.9658 0.110955 -7.18232
764427 1 77.0463 105.599 120.786 0.0505984 -7.31141
777306 1 75.4822 110.57 124.918 0.210009 -7.51775
783875 1 104.252 115.023 129.725 0.0736233 -7.81458
777553 1 101.458 118.412 129.894 0.109552 -7.37225
150921 1 121.501 140.767 65.5114 0.13992 -7.0977
151002 1 124.726 144.146 65.6672 0.228436 -6.89861
252508 1 77.2394 107.538 118.809 0.0557836 -6.95247
265389 1 77.3873 109.277 123.181 0.208404 -6.94119
246518 1 105.967 123.254 121.918 0.0491445 -6.9181
771155 1 106.043 119.813 124.893 0.264883 -7.23873
271956 1 105.874 116.71 128.066 0.141194 -7.99873
272035 1 102.661 119.994 127.814 0.172123 -6.90863
