ITEM: TIMESTEP
67000
ITEM: NUMBER OF ATOMS
17
ITEM: BOX BOUNDS pp pp pp
0 240
0 240
0 240
ITEM: ATOMS id type x y z c_myKE c_myPE
663141 1 57.3405 150.143 69.3341 0.0655972 -6.43437
687319 1 116.941 92.7983 80.1538 0.0680131 -6.1757
699952 1 95.0148 86.1954 88.1538 0.187063 -7.33362
706353 1 97.9055 86.4381 91.5831 0.0296153 -6.73189
759722 1 124.461 174.421 117.007 0.115063 -6.41328
764274 1 101.065 97.9453 119.936 0.169124 -6.62697
271393 1 97.8138 97.8777 123.502 0.337791 -6.79772
278125 1 134.21 104.813 131.294 0.320436 -6.39865
847797 1 108.835 111.709 161.579 0.343057 -6.79583
360845 1 132.874 84.6525 172.399 0.0657021 -6.25329
194272 1 91.3039 83.6416 87.8558 0.00650247 -6.57109
783554 1 102.427 102.609 124.727 0.00281635 -6.86494
277486 1 135.969 83.2874 131.324 0.137977 -6.59335
329398 1 110.204 110.364 156.6 0.114359 -7.30952
329479 1 113.424 113.439 157.03 0.0205946 -6.4011
872764 1 134.613 86.631 173.963 0.110663 -7.91882
373566 1 134.499 83.4555 177.365 0.0321489 -6.40117
