ITEM: TIMESTEP
67267
ITEM: NUMBER OF ATOMS
17
ITEM: BOX BOUNDS pp pp pp
0 240
0 240
0 240
ITEM: ATOMS id type x y z
157541 1 60.75 147.75 72.75
175320 1 117.75 93.75 81.75
194353 1 96.75 87.75 90.75
200754 1 99.75 87.75 93.75
254202 1 123.75 171.75 117.75
258675 1 102.75 99.75 120.75
265074 1 99.75 99.75 123.75
265155 1 102.75 102.75 123.75
277486 1 135.75 84.75 129.75
278045 1 132.75 105.75 129.75
360765 1 132.75 87.75 168.75
699871 1 92.25 86.25 89.25
841317 1 110.25 110.25 155.25
841398 1 113.25 113.25 155.25
847797 1 110.25 113.25 158.25
872765 1 134.25 89.25 170.25
879085 1 134.25 86.25 173.25
