ITEM: TIMESTEP
66000
ITEM: NUMBER OF ATOMS
24
ITEM: BOX BOUNDS pp pp pp
0 240
0 240
0 240
ITEM: ATOMS id type x y z
163634 1 99.75 135.75 75.75
176599 1 114.75 141.75 81.75
189554 1 99.75 147.75 87.75
189638 1 111.75 150.75 87.75
195719 1 114.75 138.75 90.75
202200 1 117.75 141.75 93.75
208596 1 105.75 141.75 96.75
208598 1 111.75 141.75 96.75
214991 1 90.75 141.75 99.75
233154 1 99.75 102.75 108.75
233156 1 105.75 102.75 108.75
681958 1 113.25 134.25 80.25
688677 1 110.25 146.25 83.25
688755 1 104.25 149.25 83.25
694836 1 107.25 137.25 86.25
694839 1 116.25 137.25 86.25
694919 1 116.25 140.25 86.25
694921 1 122.25 140.25 86.25
701478 1 113.25 146.25 89.25
701556 1 107.25 149.25 89.25
714357 1 110.25 149.25 95.25
720757 1 110.25 149.25 98.25
726275 1 104.25 116.25 101.25
752917 1 110.25 155.25 113.25
