ITEM: TIMESTEP
67000
ITEM: NUMBER OF ATOMS
18
ITEM: BOX BOUNDS pp pp pp
0 240
0 240
0 240
ITEM: ATOMS id type x y z
169165 1 132.75 102.75 78.75
181963 1 126.75 102.75 84.75
188527 1 138.75 108.75 87.75
207561 1 120.75 102.75 96.75
207965 1 132.75 117.75 96.75
220361 1 120.75 102.75 102.75
226758 1 111.75 102.75 105.75
226999 1 114.75 111.75 105.75
233240 1 117.75 105.75 108.75
655890 1 149.25 116.25 68.25
674763 1 128.25 104.25 77.25
674932 1 155.25 110.25 77.25
681082 1 125.25 101.25 80.25
700771 1 152.25 119.25 89.25
725797 1 110.25 98.25 101.25
725879 1 116.25 101.25 101.25
732279 1 116.25 101.25 104.25
738680 1 119.25 101.25 107.25
