ITEM: TIMESTEP
67180
ITEM: NUMBER OF ATOMS
17
ITEM: BOX BOUNDS pp pp pp
0 240
0 240
0 240
ITEM: ATOMS id type x y z c_myKE c_myPE
739304 1 69.1257 124.613 105.461 0 -6.25481
732273 1 101.262 91.3137 110.454 0 -6.35299
245715 1 104.103 92.7777 113.617 0 -7.2523
751233 1 102.185 94.5707 113.836 0 -7.45517
802994 1 98.9658 113.618 137.521 0 -6.54988
803234 1 100.841 121.459 139.124 0 -7.00582
803313 1 97.9031 124.588 139.331 0 -7.10119
809714 1 100.854 124.835 142.406 0 -7.01845
821793 1 95.893 95.8919 145.702 0 -6.25329
183166 1 137.707 150.473 81.5546 0 -6.25317
189384 1 65.5896 144.105 86.6716 0 -6.25457
233061 1 56.0274 99.4483 107.061 0 -6.25448
239315 1 105.581 94.6333 110.006 0 -7.12002
239396 1 105.537 96.4766 111.85 0 -7.07356
240097 1 45.2021 121.779 112.194 0 -6.25285
291075 1 100.534 115.38 135.756 0 -6.857
297715 1 102.777 123.192 140.718 0 -7.25421
