ITEM: TIMESTEP
66000
ITEM: NUMBER OF ATOMS
8
ITEM: BOX BOUNDS pp pp pp
0 240
0 240
0 240
ITEM: ATOMS id type x y z c_myKE c_myPE
181789 1 85.1919 94.6779 79.8119 0.385236 -7.45625
680910 1 86.3708 92.9943 81.7512 0.0491817 -7.1249
239877 1 104.154 116.746 105.398 0.172443 -7.16369
738995 1 102.047 116.868 106.956 0.123514 -7.08346
175309 1 81.7301 91.2938 80.1399 0.218166 -7.1299
758359 1 109.173 115.352 118.502 0.325267 -6.38761
783395 1 102.649 94.4304 129.416 0.214918 -5.53672
277796 1 103.958 96.1513 131.227 0.0576712 -6.36703
