ITEM: TIMESTEP
66000
ITEM: NUMBER OF ATOMS
20
ITEM: BOX BOUNDS pp pp pp
0 240
0 240
0 240
ITEM: ATOMS id type x y z
175727 1 138.75 108.75 81.75
188289 1 144.75 99.75 87.75
194689 1 144.75 99.75 90.75
213964 1 129.75 102.75 99.75
213967 1 138.75 102.75 99.75
220527 1 138.75 108.75 102.75
226605 1 132.75 96.75 105.75
694048 1 143.25 107.25 86.25
706201 1 122.25 83.25 92.25
706842 1 125.25 107.25 92.25
713083 1 128.25 101.25 95.25
713086 1 137.25 101.25 95.25
713087 1 140.25 101.25 95.25
713163 1 128.25 104.25 95.25
713325 1 134.25 110.25 95.25
719244 1 131.25 92.25 98.25
719565 1 134.25 104.25 98.25
732596 1 107.25 113.25 104.25
739312 1 95.25 125.25 107.25
751724 1 131.25 110.25 113.25
