ITEM: TIMESTEP
66164
ITEM: NUMBER OF ATOMS
18
ITEM: BOX BOUNDS pp pp pp
0 240
0 240
0 240
ITEM: ATOMS id type x y z
233230 1 87.75 105.75 108.75
239396 1 105.75 96.75 111.75
277473 1 96.75 84.75 129.75
296830 1 87.75 90.75 138.75
296994 1 99.75 96.75 138.75
303315 1 102.75 93.75 141.75
322353 1 96.75 87.75 150.75
322354 1 99.75 87.75 150.75
335637 1 108.75 105.75 156.75
763869 1 86.25 86.25 119.25
764265 1 74.25 101.25 119.25
770430 1 89.25 92.25 122.25
770510 1 89.25 95.25 122.25
783311 1 92.25 95.25 128.25
789313 1 98.25 80.25 131.25
795955 1 104.25 89.25 134.25
796110 1 89.25 95.25 134.25
796111 1 92.25 95.25 134.25
