ITEM: TIMESTEP
66202
ITEM: NUMBER OF ATOMS
13
ITEM: BOX BOUNDS pp pp pp
0 240
0 240
0 240
ITEM: ATOMS id type x y z c_myKE c_myPE
738757 1 108.823 104.375 109.155 0 -7.84601
751477 1 107.418 101.033 111.512 0 -6.62469
846422 1 62.5779 59.5323 161.629 0 -6.60149
846503 1 65.9133 62.724 161.714 0 -6.91118
852823 1 65.9137 59.6299 164.812 0 -6.90885
218738 1 46.444 36.8771 100.677 0 -6.25441
732437 1 108.745 106.106 107.25 0 -7.30331
257467 1 75.0361 49.7106 121.683 0 -6.54862
263787 1 75.1617 46.4555 124.939 0 -6.82143
270679 1 115.374 65.5834 126.198 0 -6.25314
291077 1 108.994 113.433 135.788 0 -6.81847
809476 1 109.107 116.701 139.033 0 -6.53501
814115 1 102.615 43.2544 147.286 0 -6.25516
