ITEM: TIMESTEP
65000
ITEM: NUMBER OF ATOMS
24
ITEM: BOX BOUNDS pp pp pp
0 240
0 240
0 240
ITEM: ATOMS id type x y z
188276 1 105.75 99.75 87.75
213554 1 99.75 87.75 99.75
214433 1 96.75 120.75 99.75
220279 1 114.75 99.75 102.75
220679 1 114.75 114.75 102.75
233150 1 87.75 102.75 108.75
233473 1 96.75 114.75 108.75
239008 1 141.75 81.75 111.75
251807 1 138.75 81.75 117.75
252362 1 123.75 102.75 117.75
259307 1 78.75 123.75 120.75
725953 1 98.25 104.25 101.25
726197 1 110.25 113.25 101.25
732438 1 113.25 107.25 104.25
732753 1 98.25 119.25 104.25
738678 1 113.25 101.25 107.25
739234 1 101.25 122.25 107.25
744925 1 134.25 95.25 110.25
744996 1 107.25 98.25 110.25
751325 1 134.25 95.25 113.25
757877 1 110.25 101.25 116.25
757878 1 113.25 101.25 116.25
770440 1 119.25 92.25 122.25
777542 1 65.25 119.25 125.25
