ITEM: TIMESTEP
67000
ITEM: NUMBER OF ATOMS
9
ITEM: BOX BOUNDS pp pp pp
0 240
0 240
0 240
ITEM: ATOMS id type x y z c_myKE c_myPE
744513 1 95.863 76.6653 110.84 0.105871 -7.16905
744594 1 99.3158 79.9812 110.695 0.0497593 -6.75095
752108 1 79.9227 126.36 110.713 0.0351766 -5.19058
290515 1 100.931 91.6492 139.399 0.138798 -6.54432
808837 1 104.505 91.3987 142.385 0.359617 -7.0583
835150 1 88.2765 118.274 155.184 0.0202273 -6.36298
213945 1 68.6165 102.595 97.4577 0.0295395 -6.41015
226835 1 96.323 103.716 105.662 0.0797644 -6.25572
309636 1 103.578 91.1336 145.249 0.327727 -6.7709
