ITEM: TIMESTEP
69293
ITEM: NUMBER OF ATOMS
18
ITEM: BOX BOUNDS pp pp pp
0 240
0 240
0 240
ITEM: ATOMS id type x y z c_myKE c_myPE
170752 1 89.5178 166.068 75.5117 0 -6.25427
713079 1 115.024 99.0858 92.7014 0 -6.25287
745397 1 110.523 113.709 107.517 0 -6.54093
233639 1 113.786 116.96 107.407 0 -6.8225
757969 1 148.886 104.221 115.036 0 -6.25436
784050 1 150.12 123.357 127.797 0 -6.25564
815170 1 152.078 86.3258 142.498 0 -6.2546
341396 1 105.473 78.7058 166.065 0 -6.25465
181965 1 134.669 102.995 83.6246 0 -6.78658
188446 1 137.91 105.499 85.0443 0 -7.06652
700365 1 136.09 105.498 86.8661 0 -7.06633
233878 1 112.197 132.589 107.052 0 -6.25757
765254 1 163.236 137.712 116.628 0 -6.2541
266774 1 161.291 166.42 123.007 0 -6.25398
265236 1 103.755 105.741 124.87 0 -6.55333
266380 1 182.376 151.714 124.96 0 -6.254
271716 1 103.89 108.995 128.125 0 -6.82096
310135 1 166.433 107.055 147.285 0 -6.25423
