ITEM: TIMESTEP
67000
ITEM: NUMBER OF ATOMS
12
ITEM: BOX BOUNDS pp pp pp
0 240
0 240
0 240
ITEM: ATOMS id type x y z c_myKE c_myPE
733328 1 145.411 140.538 102.418 0.212733 -6.30084
751961 1 121.574 120.083 111.95 0.104453 -6.03501
758613 1 159.637 129.818 114.853 0.159388 -6.91033
764843 1 124.795 118.66 120.33 0.379769 -6.31588
784359 1 115.246 135.984 129.75 0.0740252 -6.28801
221234 1 97.5582 135.768 102.813 0.0606337 -6.42065
239710 1 84.373 109.027 112.273 0.356337 -6.70014
239815 1 164.357 110.283 112.27 0.101677 -6.99188
758533 1 161.269 128.08 113.389 0.13776 -6.46146
246773 1 157.927 132.952 111.984 0.0292497 -6.74454
252533 1 159.86 109.266 116.845 0.162301 -6.36947
272281 1 119.637 131.392 128.2 0.0724388 -6.6695
