ITEM: TIMESTEP
65000
ITEM: NUMBER OF ATOMS
15
ITEM: BOX BOUNDS pp pp pp
0 240
0 240
0 240
ITEM: ATOMS id type x y z
233554 1 99.75 117.75 108.75
239556 1 105.75 102.75 111.75
239559 1 114.75 102.75 111.75
245795 1 102.75 96.75 114.75
246033 1 96.75 105.75 114.75
252196 1 105.75 96.75 117.75
271554 1 99.75 102.75 126.75
719319 1 116.25 95.25 98.25
738749 1 86.25 104.25 107.25
757800 1 119.25 98.25 116.25
757956 1 107.25 104.25 116.25
758357 1 110.25 119.25 116.25
764598 1 113.25 113.25 119.25
770676 1 107.25 101.25 122.25
783718 1 113.25 110.25 128.25
