ITEM: TIMESTEP
65306
ITEM: NUMBER OF ATOMS
16
ITEM: BOX BOUNDS pp pp pp
0 240
0 240
0 240
ITEM: ATOMS id type x y z
182525 1 132.75 123.75 84.75
193876 1 105.75 69.75 90.75
201388 1 81.75 111.75 93.75
207708 1 81.75 108.75 96.75
207789 1 84.75 111.75 96.75
226360 1 117.75 87.75 105.75
271627 1 78.75 105.75 126.75
291075 1 102.75 114.75 135.75
297476 1 105.75 114.75 138.75
719707 1 80.25 110.25 98.25
752518 1 113.25 140.25 113.25
764581 1 62.25 113.25 119.25
764660 1 59.25 116.25 119.25
809476 1 107.25 116.25 140.25
814356 1 107.25 59.25 143.25
820755 1 104.25 59.25 146.25
