ITEM: TIMESTEP
67000
ITEM: NUMBER OF ATOMS
15
ITEM: BOX BOUNDS pp pp pp
0 240
0 240
0 240
ITEM: ATOMS id type x y z c_myKE c_myPE
136525 1 134.323 76.7887 63.0398 0.0194885 -6.98721
693881 1 121.247 98.8061 83.2483 0.146133 -7.56115
705248 1 145.485 41.7861 89.7072 0.131316 -6.61009
699472 1 92.6573 69.1463 89.5164 0.0151027 -5.9505
706841 1 121.172 105.303 89.3197 0.102129 -7.13755
711647 1 142.29 41.4447 92.7574 0.019264 -6.42917
207731 1 153.519 108.745 97.7393 0.13861 -6.40849
738597 1 110.582 88.5304 105.73 0.122713 -7.50845
226358 1 110.605 86.2481 107.186 0.213363 -6.94485
226438 1 108.811 88.2885 107.495 0.118384 -7.13754
187732 1 154.985 75.3398 84.818 0.0504374 -5.92968
188361 1 119.934 100.794 85.0332 0.202654 -7.21859
226356 1 108.718 85.0433 103.544 0.0453529 -7.2147
232757 1 106.205 83.7581 107.166 0.134198 -6.56189
232670 1 86.6725 81.6614 108.906 0.101158 -5.88929
