ITEM: TIMESTEP
65317
ITEM: NUMBER OF ATOMS
21
ITEM: BOX BOUNDS pp pp pp
0 240
0 240
0 240
ITEM: ATOMS id type x y z
214518 1 111.75 123.75 99.75
214589 1 84.75 126.75 99.75
220909 1 84.75 123.75 102.75
226363 1 126.75 87.75 105.75
226442 1 123.75 90.75 105.75
232762 1 123.75 87.75 108.75
246188 1 81.75 111.75 114.75
252587 1 78.75 111.75 117.75
252668 1 81.75 114.75 117.75
257016 1 165.75 36.75 120.75
258826 1 75.75 105.75 120.75
265627 1 78.75 120.75 123.75
680683 1 128.25 86.25 80.25
687082 1 125.25 86.25 83.25
720037 1 110.25 122.25 98.25
732829 1 86.25 122.25 104.25
738281 1 122.25 86.25 107.25
746122 1 125.25 140.25 110.25
808989 1 86.25 98.25 140.25
809068 1 83.25 101.25 140.25
815388 1 83.25 98.25 143.25
