ITEM: TIMESTEP
66000
ITEM: NUMBER OF ATOMS
18
ITEM: BOX BOUNDS pp pp pp
0 240
0 240
0 240
ITEM: ATOMS id type x y z c_myKE c_myPE
649883 1 126.47 130.902 60.6664 0.0896439 -6.07229
681148 1 79.644 103.978 78.6772 0.176168 -6.63894
188508 1 78.7623 108.867 83.005 0.214069 -6.52032
694686 1 137.189 132.649 84.9908 0.0810233 -6.65043
745551 1 91.423 118.176 110.939 0.449105 -6.73161
776917 1 108.639 92.7978 124.289 0.0294927 -6.48839
771394 1 101.278 127.743 123.292 0.0979016 -6.35898
796992 1 92.9553 129.827 134.198 0.417089 -6.59741
797071 1 89.5901 132.88 134.225 0.0529148 -7.52062
796991 1 89.8409 130.574 135.687 0.125428 -6.46971
304118 1 110.417 123.231 145.7 0.0866032 -6.42295
643086 1 141.127 116.691 59.0127 0.0707119 -6.49552
176207 1 138.838 127.958 80.2728 0.118049 -6.82537
681805 1 135.826 131.229 80.1119 0.0510584 -7.57741
182766 1 135.862 134.608 83.4871 0.0894819 -7.16161
291551 1 87.9006 134.549 135.928 0.0124381 -7.0907
316353 1 96.1835 101.027 148.577 0.162078 -6.40308
828431 1 93.0361 104.093 148.655 0.448092 -6.56863
