ITEM: TIMESTEP
67000
ITEM: NUMBER OF ATOMS
14
ITEM: BOX BOUNDS pp pp pp
0 240
0 240
0 240
ITEM: ATOMS id type x y z
233312 1 93.75 108.75 108.75
239553 1 96.75 102.75 111.75
271632 1 93.75 105.75 126.75
277792 1 93.75 96.75 129.75
290826 1 75.75 105.75 135.75
744990 1 89.25 98.25 110.25
770594 1 101.25 98.25 122.25
777233 1 98.25 107.25 125.25
789952 1 95.25 104.25 131.25
816028 1 83.25 122.25 143.25
816032 1 95.25 122.25 143.25
835065 1 74.25 116.25 152.25
835226 1 77.25 122.25 152.25
859947 1 80.25 89.25 164.25
