ITEM: TIMESTEP
67200
ITEM: NUMBER OF ATOMS
14
ITEM: BOX BOUNDS pp pp pp
0 240
0 240
0 240
ITEM: ATOMS id type x y z
258350 1 87.75 87.75 120.75
259083 1 126.75 114.75 120.75
259164 1 129.75 117.75 120.75
259627 1 78.75 135.75 120.75
308668 1 81.75 54.75 144.75
341064 1 69.75 69.75 159.75
790095 1 44.25 110.25 131.25
796426 1 77.25 107.25 134.25
802746 1 77.25 104.25 137.25
802825 1 74.25 107.25 137.25
822042 1 125.25 107.25 146.25
867141 1 62.25 119.25 167.25
873621 1 62.25 122.25 170.25
899870 1 89.25 146.25 182.25
