ITEM: TIMESTEP
67000
ITEM: NUMBER OF ATOMS
16
ITEM: BOX BOUNDS pp pp pp
0 240
0 240
0 240
ITEM: ATOMS id type x y z
175650 1 147.75 105.75 81.75
188361 1 120.75 102.75 87.75
188602 1 123.75 111.75 87.75
194526 1 135.75 93.75 90.75
194618 1 171.75 96.75 90.75
201077 1 108.75 99.75 93.75
214119 1 114.75 108.75 99.75
220222 1 183.75 96.75 102.75
220364 1 129.75 102.75 102.75
226539 1 174.75 93.75 105.75
712995 1 104.25 98.25 95.25
719479 1 116.25 101.25 98.25
726055 1 164.25 107.25 101.25
732141 1 182.25 95.25 104.25
732455 1 164.25 107.25 104.25
732598 1 113.25 113.25 104.25
