ITEM: TIMESTEP
65000
ITEM: NUMBER OF ATOMS
18
ITEM: BOX BOUNDS pp pp pp
0 240
0 240
0 240
ITEM: ATOMS id type x y z c_myKE c_myPE
668199 1 114.854 96.3131 70.3958 0.061984 -5.61344
668280 1 118.578 98.7647 70.3503 0.191597 -6.21597
763558 1 113.902 70.4741 120.271 0.0119505 -6.58214
777472 1 94.2903 117.013 124.784 0.17227 -7.09566
776505 1 72.002 76.8911 126.639 0.0428152 -6.64049
783874 1 98.9335 115.294 126.665 0.143085 -7.06938
777393 1 95.9092 118.458 126.462 0.174829 -7.22791
271954 1 101.048 116.661 127.826 0.389806 -6.70572
802268 1 79.9704 83.4334 136.227 0.221002 -5.98942
661880 1 119.977 97.2186 67.3539 0.0791988 -8.44057
201071 1 89.857 99.4552 91.2364 0.0976576 -6.22025
200190 1 86.4618 65.0335 93.0132 0.114773 -7.04405
240196 1 103.629 128.209 112.29 0.56449 -6.12818
777392 1 96.0786 112.536 125.954 0.03958 -7.32071
265473 1 96.1668 115.703 126.349 0.00681441 -7.87457
790114 1 103.013 107.322 132.699 0.0766859 -5.44832
297383 1 62.5139 112.168 139.083 0.104801 -6.83154
809304 1 65.5878 112.192 142.123 0.0568652 -6.45076
