ITEM: TIMESTEP
65150
ITEM: NUMBER OF ATOMS
15
ITEM: BOX BOUNDS pp pp pp
0 240
0 240
0 240
ITEM: ATOMS id type x y z
200107 1 78.75 63.75 93.75
201255 1 162.75 105.75 93.75
226676 1 105.75 99.75 105.75
227474 1 99.75 129.75 105.75
232996 1 105.75 96.75 108.75
233077 1 108.75 99.75 108.75
238503 1 66.75 63.75 111.75
245889 1 144.75 99.75 114.75
252209 1 144.75 96.75 117.75
252290 1 147.75 99.75 117.75
737958 1 113.25 74.25 107.25
745076 1 107.25 101.25 110.25
770189 1 86.25 83.25 122.25
770529 1 146.25 95.25 122.25
775955 1 104.25 59.25 125.25
