ITEM: TIMESTEP
70000
ITEM: NUMBER OF ATOMS
21
ITEM: BOX BOUNDS pp pp pp
0 240
0 240
0 240
ITEM: ATOMS id type x y z c_myKE c_myPE
201801 1 121.59 127.765 89.4014 0.180636 -6.8678
195402 1 123.459 129.733 88.5418 0.0336631 -6.53101
713243 1 127.932 107.405 92.8167 0.059303 -6.69593
214439 1 114.818 121.434 95.7396 0.104423 -6.82389
744991 1 89.7564 97.6682 107.403 0.14904 -6.60886
745078 1 114.935 101.272 110.368 0.0565349 -6.78914
745158 1 115.24 104.185 110.539 0.160235 -6.77581
771100 1 182.126 116.973 120.573 0.0091677 -6.20376
259252 1 155.308 123.457 121.495 0.266307 -7.05672
265651 1 153.537 124.665 123.372 0.1288 -8.22234
771410 1 150.262 127.968 123.239 0.0650658 -7.18534
777811 1 153.647 128.007 126.62 0.0422922 -6.91676
816051 1 156.286 123.258 145.727 0.134435 -6.40091
726121 1 127.939 104.014 96.2884 0.28737 -6.55429
726358 1 113.358 119.942 97.3395 0.626705 -7.13198
219887 1 140.603 83.3098 100.624 0.374548 -5.93374
757961 1 115.425 104.029 113.828 0.139174 -6.95539
771329 1 152.088 126.299 121.764 0.344795 -7.6475
777650 1 151.941 126.188 125.072 0.14659 -8.11938
272450 1 148.517 129.389 125.032 0.0305067 -7.97647
265969 1 145.479 132.504 124.865 0.263376 -6.48854
