ITEM: TIMESTEP
69000
ITEM: NUMBER OF ATOMS
26
ITEM: BOX BOUNDS pp pp pp
0 240
0 240
0 240
ITEM: ATOMS id type x y z
232913 1 96.75 93.75 108.75
232914 1 99.75 93.75 108.75
239396 1 105.75 96.75 111.75
245715 1 102.75 93.75 114.75
278036 1 105.75 105.75 129.75
291398 1 111.75 126.75 135.75
291478 1 111.75 129.75 135.75
337240 1 117.75 165.75 156.75
343639 1 114.75 165.75 159.75
343799 1 114.75 171.75 159.75
349800 1 117.75 156.75 162.75
349801 1 120.75 156.75 162.75
362522 1 123.75 153.75 168.75
362682 1 123.75 159.75 168.75
362683 1 126.75 159.75 168.75
744836 1 107.25 92.25 110.25
744918 1 113.25 95.25 110.25
745154 1 101.25 104.25 110.25
757792 1 95.25 98.25 116.25
797078 1 113.25 131.25 134.25
809797 1 110.25 128.25 140.25
835880 1 119.25 146.25 152.25
842280 1 119.25 146.25 155.25
855241 1 122.25 152.25 161.25
861722 1 125.25 155.25 164.25
861804 1 131.25 158.25 164.25
