ITEM: TIMESTEP
69000
ITEM: NUMBER OF ATOMS
26
ITEM: BOX BOUNDS pp pp pp
0 240
0 240
0 240
ITEM: ATOMS id type x y z c_myKE c_myPE
693246 1 137.527 73.6205 81.9151 0.194205 -6.42259
713954 1 101.086 136.26 92.626 0.0782503 -6.77498
763715 1 102.257 78.7537 118.472 0.0771726 -6.67677
764832 1 94.4921 121.564 120.429 0.185471 -6.82406
808992 1 92.7078 95.9097 142.309 0.129805 -6.38151
815544 1 67.3719 102.26 143.829 0.0609941 -5.79509
828836 1 105.674 121.25 149.892 0.0259863 -6.97346
828926 1 138.64 124.363 149.976 0.143807 -5.25566
324126 1 139.442 155.404 150.005 0.154412 -7.1549
336432 1 89.6962 137.423 159.782 0.0356613 -6.37186
873972 1 156.681 134.249 174.214 0.145586 -6.23044
875000 1 120.443 175.729 174.256 0.200086 -6.84393
880524 1 131.017 140.438 177.605 0.249009 -6.98803
880604 1 130.922 143.691 177.597 0.269989 -6.83175
881320 1 120.304 172.682 177.613 0.362233 -7.01348
913080 1 120.089 164.71 191.705 0.0453051 -6.13879
219151 1 89.5895 52.9415 100.785 0.535291 -6.33128
297727 1 139.08 122.844 140.91 0.0765592 -6.62241
305489 1 147.496 179.482 142.056 0.0509703 -6.45625
305478 1 110.447 179.507 143.884 0.0383229 -6.12566
316916 1 103.697 122.78 148.445 0.094856 -6.79571
335562 1 121.885 102.966 160.251 0.368809 -7.03591
340589 1 81.5705 46.4875 163.3 0.136826 -6.75032
346909 1 81.5357 43.1321 166.248 0.0310333 -7.07506
368604 1 129.04 142.127 176.035 0.287425 -6.71045
382120 1 118.667 170.713 179.294 0.0562321 -7.03873
