ITEM: TIMESTEP
66268
ITEM: NUMBER OF ATOMS
18
ITEM: BOX BOUNDS pp pp pp
0 240
0 240
0 240
ITEM: ATOMS id type x y z c_myKE c_myPE
776436 1 105.173 75.2235 123.501 0 -6.99755
782996 1 105.022 79.7851 127.848 0 -7.73705
328270 1 85.0843 63.9771 156.508 0 -6.25465
335392 1 91.4134 94.7832 161.492 0 -7.0713
245632 1 93.073 86.6509 113.444 0 -6.82446
251872 1 93.1449 83.3915 116.697 0 -6.51871
751303 1 64.3412 94.2861 115.381 0 -6.25356
246527 1 138.978 126.201 115.215 0 -6.60188
265565 1 137.807 121.665 119.929 0 -6.5723
253006 1 135.789 126.111 118.551 0 -6.91102
270997 1 107.022 78.8186 126.237 0 -7.76619
277477 1 106.961 78.2978 129.179 0 -7.377
776595 1 105.957 81.2858 129.775 0 -7.11753
821557 1 107.075 84.736 145.387 0 -6.8231
309638 1 110.329 87.9868 145.233 0 -6.56838
841064 1 65.5937 100.668 158.098 0 -6.25533
335312 1 93.1516 93.0094 160.12 0 -7.04003
341712 1 92.9372 93.303 163.148 0 -6.87018
