ITEM: TIMESTEP
65279
ITEM: NUMBER OF ATOMS
15
ITEM: BOX BOUNDS pp pp pp
0 240
0 240
0 240
ITEM: ATOMS id type x y z
213789 1 84.75 96.75 99.75
233072 1 93.75 99.75 108.75
239393 1 96.75 96.75 111.75
245795 1 102.75 96.75 114.75
245865 1 72.75 99.75 114.75
245875 1 102.75 99.75 114.75
258509 1 84.75 93.75 120.75
264912 1 93.75 93.75 123.75
271392 1 93.75 96.75 126.75
284195 1 102.75 96.75 132.75
745071 1 92.25 101.25 110.25
751469 1 86.25 101.25 113.25
763797 1 110.25 83.25 119.25
776831 1 92.25 92.25 125.25
776990 1 89.25 98.25 125.25
