ITEM: TIMESTEP
67253
ITEM: NUMBER OF ATOMS
20
ITEM: BOX BOUNDS pp pp pp
0 240
0 240
0 240
ITEM: ATOMS id type x y z c_myKE c_myPE
655722 1 123.357 111.848 63.992 0 -6.25444
706830 1 86.198 107.324 91.377 0 -6.53907
713884 1 130.992 134.184 91.451 0 -6.2502
713310 1 86.2991 110.577 94.6381 0 -6.82882
732835 1 97.5559 121.088 99.2884 0 -7.31616
727318 1 111.92 158.382 101.141 0 -6.54647
727397 1 108.661 161.637 101.018 0 -6.82226
227240 1 114.094 119.925 107.215 0 -7.30495
732917 1 107.007 124.402 107.302 0 -6.8185
751559 1 116.66 103.894 111.654 0 -7.06619
757880 1 118.084 101.407 114.898 0 -6.78939
758038 1 114.164 105.312 114.902 0 -6.7966
182832 1 93.0378 137.709 81.5471 0 -6.82188
189231 1 89.7779 137.844 84.7976 0 -6.55275
214676 1 97.6515 122.839 101.171 0 -7.86123
220838 1 109.273 118.674 103.002 0 -7.03591
732834 1 96.2409 126.183 103.587 0 -6.58361
240118 1 110.49 122.033 105.64 0 -7.61885
253708 1 80.2869 154.92 118.574 0 -6.25616
310907 1 75.1558 140.911 148.529 0 -6.25557
