ITEM: TIMESTEP
65175
ITEM: NUMBER OF ATOMS
14
ITEM: BOX BOUNDS pp pp pp
0 240
0 240
0 240
ITEM: ATOMS id type x y z
226759 1 114.75 102.75 105.75
226841 1 120.75 105.75 105.75
226842 1 123.75 105.75 105.75
246119 1 114.75 108.75 114.75
265235 1 102.75 105.75 123.75
309553 1 96.75 87.75 144.75
713232 1 95.25 107.25 95.25
726194 1 101.25 113.25 101.25
738679 1 116.25 101.25 107.25
745558 1 113.25 119.25 110.25
751794 1 101.25 113.25 113.25
758041 1 122.25 107.25 116.25
770594 1 101.25 98.25 122.25
770750 1 89.25 104.25 122.25
