ITEM: TIMESTEP
65201
ITEM: NUMBER OF ATOMS
17
ITEM: BOX BOUNDS pp pp pp
0 240
0 240
0 240
ITEM: ATOMS id type x y z c_myKE c_myPE
706686 1 139.299 101.01 91.4729 0 -6.25276
726907 1 76.8753 142.378 101.113 0 -7.04405
765063 1 64.0009 132.924 120.171 0 -6.25571
777629 1 83.0592 121.488 124.712 0 -7.08884
777469 1 85.1155 116.988 126.548 0 -6.88963
809648 1 145.685 123.356 142.496 0 -6.25371
194443 1 128.138 87.7176 89.875 0 -6.46404
194428 1 78.3424 89.8453 89.8541 0 -6.25354
201636 1 103.831 119.792 91.0593 0 -7.5241
201717 1 107.152 123.104 91.0238 0 -6.56543
207246 1 135.765 87.7195 94.2789 0 -6.46425
208116 1 103.783 123.096 94.3876 0 -6.57888
214987 1 75.114 143.873 99.3646 0 -6.75686
214988 1 78.4204 144.237 99.3305 0 -6.91852
259149 1 83.5611 118.536 121.79 0 -7.13894
265549 1 83.2849 118.757 124.799 0 -7.05059
297390 1 83.4808 110.25 138.945 0 -6.25928
