ITEM: TIMESTEP
67175
ITEM: NUMBER OF ATOMS
12
ITEM: BOX BOUNDS pp pp pp
0 240
0 240
0 240
ITEM: ATOMS id type x y z c_myKE c_myPE
226760 1 117.187 102.391 108.777 0 -6.98189
764021 1 57.6041 91.4516 120.172 0 -6.25465
821385 1 70.3513 79.9278 146.815 0 -6.82407
828593 1 95.8921 111.857 153.34 0 -6.81968
316674 1 97.8133 113.775 152.065 0 -6.81901
232598 1 110.247 78.3449 107.063 0 -6.25415
745158 1 115.391 100.652 107.031 0 -6.82642
232990 1 83.4721 97.4821 110.25 0 -6.25485
239641 1 118.705 104.035 110.421 0 -6.58718
303061 1 56.0132 81.5421 144.086 0 -6.822
808666 1 70.7286 80.3058 144.224 0 -6.82297
303142 1 59.2708 84.8012 144.223 0 -6.55346
