ITEM: TIMESTEP
67000
ITEM: NUMBER OF ATOMS
28
ITEM: BOX BOUNDS pp pp pp
0 240
0 240
0 240
ITEM: ATOMS id type x y z c_myKE c_myPE
705793 1 95.9283 67.3663 92.6311 0.312763 -6.78067
783473 1 98.8051 100.844 128.104 0.105844 -6.74024
272020 1 54.3961 123.221 126.326 0.099595 -5.88591
265075 1 102.602 100.985 131.066 0.222766 -7.51388
783556 1 103.85 105.295 129.508 0.0445263 -6.1525
790925 1 136.352 140.43 129.928 0.123805 -6.35103
277956 1 105.682 101.101 134.269 0.00810106 -7.09689
802834 1 102.119 107.624 140.647 0.149166 -7.76161
814989 1 85.1289 80.0414 143.896 0.484477 -6.77667
310195 1 102.345 110.771 143.826 0.112806 -7.36938
815797 1 105.319 113.552 143.756 0.124374 -6.31438
316598 1 105.678 110.78 146.925 0.32488 -7.41702
828188 1 80.2394 95.6986 150.249 0.0392622 -6.42116
835148 1 79.8249 118.287 155.238 0.344079 -6.71055
688111 1 89.8529 126.02 83.5152 0.00464054 -6.59449
712192 1 92.8134 62.1165 91.2765 0.150572 -7.54218
200192 1 90.8211 63.9616 91.5407 0.212104 -7.15083
758110 1 87.6753 105.699 113.724 0.460051 -6.38532
263948 1 78.4876 52.8284 125.037 0.10254 -6.15717
284436 1 100.876 105.709 132.685 0.0959508 -7.96884
290915 1 102.61 107.067 137.89 0.0391326 -7.3608
303715 1 100.656 105.796 142.152 0.0691402 -6.98725
815714 1 100.782 108.936 142.398 0.182917 -7.76893
297803 1 128.119 126.344 140.761 0.14035 -6.11096
322847 1 142.04 105.946 151.603 0.115684 -6.61679
323228 1 78.3483 119.897 153.414 0.11178 -6.39338
867555 1 102.428 132.637 169.414 0.529798 -6.05608
387475 1 100.833 129.237 183.667 0.073044 -6.05987
