ITEM: TIMESTEP
67192
ITEM: NUMBER OF ATOMS
29
ITEM: BOX BOUNDS pp pp pp
0 240
0 240
0 240
ITEM: ATOMS id type x y z
200192 1 93.75 66.75 93.75
207152 1 93.75 87.75 96.75
219951 1 90.75 87.75 102.75
239314 1 99.75 93.75 111.75
239315 1 102.75 93.75 111.75
239556 1 105.75 102.75 111.75
245394 1 99.75 81.75 114.75
245793 1 96.75 96.75 114.75
252116 1 105.75 93.75 117.75
303639 1 114.75 105.75 141.75
310279 1 114.75 114.75 144.75
316674 1 99.75 114.75 147.75
323000 1 117.75 111.75 150.75
323080 1 117.75 114.75 150.75
329558 1 111.75 117.75 153.75
336039 1 114.75 120.75 156.75
342757 1 108.75 132.75 159.75
355957 1 108.75 147.75 165.75
718909 1 86.25 80.25 98.25
744831 1 92.25 92.25 110.25
744914 1 101.25 95.25 110.25
751711 1 92.25 110.25 113.25
757637 1 110.25 92.25 116.25
757955 1 104.25 104.25 116.25
758034 1 101.25 107.25 116.25
770513 1 98.25 95.25 122.25
809321 1 122.25 110.25 140.25
822198 1 113.25 113.25 146.25
834918 1 113.25 110.25 152.25
