ITEM: TIMESTEP
66000
ITEM: NUMBER OF ATOMS
17
ITEM: BOX BOUNDS pp pp pp
0 240
0 240
0 240
ITEM: ATOMS id type x y z
245796 1 105.75 96.75 114.75
245799 1 114.75 96.75 114.75
246036 1 105.75 105.75 114.75
246441 1 120.75 120.75 114.75
252275 1 102.75 99.75 117.75
259631 1 90.75 135.75 120.75
297791 1 90.75 126.75 138.75
738513 1 98.25 95.25 107.25
751316 1 107.25 95.25 113.25
757723 1 128.25 95.25 116.25
757874 1 101.25 101.25 116.25
763958 1 113.25 89.25 119.25
764196 1 107.25 98.25 119.25
764600 1 119.25 113.25 119.25
770437 1 110.25 92.25 122.25
770677 1 110.25 101.25 122.25
816110 1 89.25 125.25 143.25
