ITEM: TIMESTEP
66000
ITEM: NUMBER OF ATOMS
18
ITEM: BOX BOUNDS pp pp pp
0 240
0 240
0 240
ITEM: ATOMS id type x y z
182518 1 111.75 123.75 84.75
195472 1 93.75 129.75 90.75
195473 1 96.75 129.75 90.75
202115 1 102.75 138.75 93.75
220832 1 93.75 120.75 102.75
221552 1 93.75 147.75 102.75
233320 1 117.75 108.75 108.75
694195 1 104.25 113.25 86.25
706996 1 107.25 113.25 92.25
707080 1 119.25 116.25 92.25
707233 1 98.25 122.25 92.25
707394 1 101.25 128.25 92.25
707395 1 104.25 128.25 92.25
719718 1 113.25 110.25 98.25
732674 1 101.25 116.25 104.25
733630 1 89.25 152.25 104.25
739708 1 83.25 140.25 107.25
746266 1 77.25 146.25 110.25
