ITEM: TIMESTEP
66215
ITEM: NUMBER OF ATOMS
19
ITEM: BOX BOUNDS pp pp pp
0 240
0 240
0 240
ITEM: ATOMS id type x y z c_myKE c_myPE
661486 1 139.312 83.1445 67.1894 0 -6.25424
661876 1 105.6 99.2194 69.1999 0 -7.1063
668357 1 108.863 102.39 69.172 0 -6.65227
669148 1 79.5788 136.257 69.2603 0 -6.75799
669227 1 77.053 139.503 70.6719 0 -7.07695
674675 1 105.485 102.189 72.3142 0 -6.93769
163628 1 77.0503 137.678 72.4872 0 -7.05318
694989 1 88.1872 145.819 84.9989 0 -6.54324
701471 1 91.4426 145.691 88.254 0 -6.8163
720758 1 111.852 152.086 95.8961 0 -6.25714
252671 1 89.5911 117.028 118.307 0 -7.2001
636832 1 91.1134 121.761 54.7679 0 -6.24776
661794 1 102.484 96.1113 68.6509 0 -6.63828
233711 1 89.9552 122.847 109.272 0 -7.1578
240031 1 90.1034 119.769 112.116 0 -7.43218
246433 1 94.4812 121.848 113.569 0 -6.63367
758191 1 87.8584 115.324 116.822 0 -6.93469
252672 1 91.0545 115.209 116.488 0 -7.14221
311143 1 62.397 148.526 145.336 0 -6.25363
