ITEM: TIMESTEP
67238
ITEM: NUMBER OF ATOMS
15
ITEM: BOX BOUNDS pp pp pp
0 240
0 240
0 240
ITEM: ATOMS id type x y z
207394 1 99.75 96.75 96.75
239315 1 102.75 93.75 111.75
252116 1 105.75 93.75 117.75
252119 1 114.75 93.75 117.75
252197 1 108.75 96.75 117.75
277397 1 108.75 81.75 129.75
283472 1 93.75 69.75 132.75
308846 1 135.75 60.75 144.75
725716 1 107.25 95.25 101.25
739473 1 98.25 131.25 107.25
757793 1 98.25 98.25 116.25
769954 1 101.25 74.25 122.25
783077 1 110.25 86.25 128.25
796596 1 107.25 113.25 134.25
808042 1 125.25 62.25 140.25
