ITEM: TIMESTEP
67249
ITEM: NUMBER OF ATOMS
22
ITEM: BOX BOUNDS pp pp pp
0 240
0 240
0 240
ITEM: ATOMS id type x y z
188357 1 108.75 102.75 87.75
194450 1 147.75 90.75 90.75
194759 1 114.75 102.75 90.75
200849 1 144.75 90.75 93.75
201008 1 141.75 96.75 93.75
207393 1 96.75 96.75 96.75
207732 1 153.75 108.75 96.75
213489 1 144.75 84.75 99.75
220052 1 153.75 90.75 102.75
674836 1 107.25 107.25 77.25
687555 1 104.25 104.25 83.25
701082 1 125.25 131.25 89.25
706440 1 119.25 92.25 92.25
713074 1 101.25 101.25 95.25
713079 1 116.25 101.25 95.25
725408 1 143.25 83.25 101.25
725488 1 143.25 86.25 101.25
726036 1 107.25 107.25 101.25
731414 1 161.25 68.25 104.25
732125 1 134.25 95.25 104.25
732126 1 137.25 95.25 104.25
732437 1 110.25 107.25 104.25
