ITEM: TIMESTEP
66000
ITEM: NUMBER OF ATOMS
21
ITEM: BOX BOUNDS pp pp pp
0 240
0 240
0 240
ITEM: ATOMS id type x y z
182278 1 111.75 114.75 84.75
188361 1 120.75 102.75 87.75
201317 1 108.75 108.75 93.75
201319 1 114.75 108.75 93.75
206759 1 114.75 72.75 96.75
207241 1 120.75 90.75 96.75
207478 1 111.75 99.75 96.75
207561 1 120.75 102.75 96.75
208041 1 120.75 120.75 96.75
213641 1 120.75 90.75 99.75
220281 1 120.75 99.75 102.75
220681 1 120.75 114.75 102.75
221006 1 135.75 126.75 102.75
226441 1 120.75 90.75 105.75
233084 1 129.75 99.75 108.75
681555 1 104.25 119.25 80.25
712358 1 113.25 74.25 95.25
713479 1 116.25 116.25 95.25
719638 1 113.25 107.25 98.25
725561 1 122.25 89.25 101.25
731963 1 128.25 89.25 104.25
