ITEM: TIMESTEP
68000
ITEM: NUMBER OF ATOMS
23
ITEM: BOX BOUNDS pp pp pp
0 240
0 240
0 240
ITEM: ATOMS id type x y z c_myKE c_myPE
738746 1 73.5141 102.422 107.258 0.28114 -7.17369
226767 1 139.467 101.364 107.471 0.228806 -6.90537
745066 1 73.6311 99.29 110.622 0.0895791 -6.76799
746280 1 118.332 148.63 110.73 0.0481593 -5.48873
751467 1 76.7318 98.9289 113.62 0.0691301 -6.3968
783395 1 100.865 98.0604 129.974 0.0300171 -7.45393
789157 1 112.042 72.7131 132.848 0.018011 -6.11916
789795 1 100.911 97.6475 132.901 0.330613 -6.94455
841476 1 105.762 116.823 153.295 0.109366 -6.20079
840350 1 86.4283 72.4131 155.739 0.0966259 -6.35082
872668 1 79.9314 84.9901 172.492 0.0408973 -6.22917
393311 1 91.301 107.517 185.5 0.190132 -6.81063
905152 1 92.8429 104.262 187.683 0.226447 -7.07573
912357 1 110.639 136.139 193.372 0.17367 -6.01764
182913 1 94.4098 141.311 81.4496 0.092524 -6.64862
226838 1 112.134 105.68 103.594 0.015999 -6.54844
226745 1 68.8521 100.817 105.774 0.0434077 -6.3214
783554 1 100.739 100.418 129.361 0.164024 -6.8969
277795 1 102.488 96.1445 131.227 0.0231976 -7.00253
289632 1 93.1434 58.1277 135.646 0.13353 -6.70562
816281 1 123.123 129.426 143.861 0.0553344 -5.82961
316675 1 100.724 115.298 148.605 0.14057 -6.5449
323076 1 104.009 115.336 151.656 0.389079 -6.64228
