ITEM: TIMESTEP
65000
ITEM: NUMBER OF ATOMS
25
ITEM: BOX BOUNDS pp pp pp
0 240
0 240
0 240
ITEM: ATOMS id type x y z c_myKE c_myPE
680512 1 92.8689 78.4152 76.8234 0.271839 -5.99756
688590 1 86.4472 145.904 80.0488 0.0400299 -6.37318
694671 1 91.5887 132.76 83.4237 0.0523301 -6.0954
213969 1 146.958 102.269 101.07 0.0758358 -6.29158
726272 1 92.9595 115.34 101.117 0.104496 -6.5446
726352 1 92.7717 118.052 101.071 0.111181 -7.45246
732751 1 89.4682 118.145 103.933 0.296305 -6.63077
732832 1 92.8855 121.266 104.116 0.143407 -6.95424
739231 1 89.5504 121.54 107.493 0.0996551 -7.54293
763409 1 148.708 64.2305 120.43 0.031583 -6.62212
783637 1 110.419 107.334 129.636 0.148253 -6.02257
284253 1 31.9342 101.067 134.085 0.0675867 -7.37706
303552 1 92.6098 99.0826 144.226 0.0589147 -6.74877
815472 1 94.6713 99.1518 145.933 0.0988722 -7.30373
821473 1 96.145 83.1144 148.741 0.271833 -5.96437
156916 1 104.067 123.33 67.5378 0.172813 -6.84815
182672 1 93.2359 131.105 81.6215 0.0557913 -7.05077
180998 1 112.412 62.2935 83.5326 0.295419 -6.29119
221151 1 87.9328 132.481 102.702 0.178844 -5.64467
739153 1 94.1783 116.849 105.76 0.055098 -6.72332
227311 1 87.8977 123.127 105.661 0.268622 -6.73534
284519 1 113.343 106.98 132.687 0.10691 -6.79882
802652 1 30.2032 99.3748 135.69 0.0962342 -5.87601
828024 1 68.833 89.9323 153.626 0.0117277 -6.19149
328905 1 68.8416 93.0313 156.816 0.271401 -7.52899
