ITEM: TIMESTEP
66254
ITEM: NUMBER OF ATOMS
16
ITEM: BOX BOUNDS pp pp pp
0 240
0 240
0 240
ITEM: ATOMS id type x y z
201629 1 84.75 120.75 93.75
207709 1 84.75 108.75 96.75
207794 1 99.75 111.75 96.75
233311 1 90.75 108.75 108.75
233313 1 96.75 108.75 108.75
233393 1 96.75 111.75 108.75
233398 1 111.75 111.75 108.75
233399 1 114.75 111.75 108.75
233473 1 96.75 114.75 108.75
239547 1 78.75 102.75 111.75
246193 1 96.75 111.75 114.75
272036 1 105.75 120.75 126.75
719634 1 101.25 107.25 98.25
732277 1 110.25 101.25 104.25
745150 1 89.25 104.25 110.25
745391 1 92.25 113.25 110.25
