ITEM: TIMESTEP
66000
ITEM: NUMBER OF ATOMS
8
ITEM: BOX BOUNDS pp pp pp
0 240
0 240
0 240
ITEM: ATOMS id type x y z c_myKE c_myPE
622918 1 110.694 78.7715 47.0414 0.0390721 -6.561
239163 1 124.76 88.3803 108.569 0.181658 -7.08237
264758 1 110.805 87.939 124.937 0.00523771 -5.47928
264599 1 116.922 78.6064 126.333 0.0659854 -6.35992
182594 1 97.801 126.386 83.5561 0.107565 -5.72687
187948 1 78.2541 88.2195 87.0323 0.190314 -6.76536
731962 1 123.131 86.6606 110.232 0.0919951 -6.74513
264439 1 113.723 75.1795 126.317 0.0662981 -7.37371
