ITEM: TIMESTEP
66315
ITEM: NUMBER OF ATOMS
16
ITEM: BOX BOUNDS pp pp pp
0 240
0 240
0 240
ITEM: ATOMS id type x y z
188756 1 105.75 117.75 87.75
195239 1 114.75 120.75 90.75
200840 1 117.75 90.75 93.75
207956 1 105.75 117.75 96.75
208118 1 111.75 123.75 96.75
214278 1 111.75 114.75 99.75
220596 1 105.75 111.75 102.75
226915 1 102.75 108.75 105.75
701469 1 86.25 146.25 89.25
707075 1 104.25 116.25 92.25
713070 1 89.25 101.25 95.25
726116 1 107.25 110.25 101.25
726355 1 104.25 119.25 101.25
738835 1 104.25 107.25 107.25
764509 1 86.25 110.25 119.25
765069 1 86.25 131.25 119.25
