ITEM: TIMESTEP
65180
ITEM: NUMBER OF ATOMS
15
ITEM: BOX BOUNDS pp pp pp
0 240
0 240
0 240
ITEM: ATOMS id type x y z
195390 1 87.75 126.75 90.75
208015 1 42.75 120.75 96.75
220283 1 126.75 99.75 102.75
220364 1 129.75 102.75 102.75
226763 1 126.75 102.75 105.75
226908 1 81.75 108.75 105.75
246908 1 81.75 138.75 114.75
253072 1 93.75 129.75 117.75
265082 1 123.75 99.75 123.75
348045 1 132.75 90.75 162.75
707871 1 92.25 146.25 92.25
714270 1 89.25 146.25 95.25
732598 1 113.25 113.25 104.25
776679 1 116.25 86.25 125.25
777001 1 122.25 98.25 125.25
