ITEM: TIMESTEP
68265
ITEM: NUMBER OF ATOMS
21
ITEM: BOX BOUNDS pp pp pp
0 240
0 240
0 240
ITEM: ATOMS id type x y z c_myKE c_myPE
700276 1 105.554 100.952 86.1959 0 -6.54229
700355 1 102.299 104.209 86.3116 0 -6.82227
720186 1 76.3172 128.02 96.0531 0 -7.39446
726835 1 102.295 137.369 99.071 0 -6.25255
726588 1 81.729 128.015 101.473 0 -7.39791
732856 1 171.218 121.421 104.21 0 -6.25558
738767 1 140.637 100.955 108.524 0 -6.55553
745326 1 137.389 104.214 108.663 0 -6.81872
751652 1 154.963 105.278 115.348 0 -7.06601
751810 1 152.454 108.514 113.929 0 -6.79801
758051 1 154.96 107.098 117.171 0 -7.0729
247575 1 166.081 166.077 116.97 0 -6.25285
790047 1 142.512 107.412 129.735 0 -6.2545
797727 1 140.552 158.464 136.094 0 -6.25475
836049 1 148.725 153.481 155.362 0 -6.54258
208188 1 78.1198 127.948 97.8998 0 -7.81428
214668 1 79.8856 127.948 99.6652 0 -7.81553
226588 1 80.3073 96.2402 103.855 0 -6.25569
235002 1 123.017 175.997 108.998 0 -6.25453
252590 1 84.7422 112.195 118.569 0 -6.25584
324050 1 150.496 151.711 153.778 0 -6.82562
