ITEM: TIMESTEP
66000
ITEM: NUMBER OF ATOMS
14
ITEM: BOX BOUNDS pp pp pp
0 240
0 240
0 240
ITEM: ATOMS id type x y z
239556 1 105.75 102.75 111.75
239557 1 108.75 102.75 111.75
245716 1 105.75 93.75 114.75
252512 1 93.75 108.75 117.75
265153 1 96.75 102.75 123.75
297480 1 117.75 114.75 138.75
719393 1 98.25 98.25 98.25
751635 1 104.25 107.25 113.25
757954 1 101.25 104.25 116.25
771163 1 128.25 119.25 122.25
789951 1 92.25 104.25 131.25
796281 1 122.25 101.25 134.25
803398 1 113.25 128.25 137.25
809240 1 119.25 107.25 140.25
