ITEM: TIMESTEP
66000
ITEM: NUMBER OF ATOMS
19
ITEM: BOX BOUNDS pp pp pp
0 240
0 240
0 240
ITEM: ATOMS id type x y z
258200 1 117.75 81.75 120.75
258363 1 126.75 87.75 120.75
264920 1 117.75 93.75 123.75
290110 1 87.75 78.75 135.75
303325 1 132.75 93.75 141.75
713153 1 98.25 104.25 95.25
719002 1 125.25 83.25 98.25
745156 1 107.25 104.25 110.25
750998 1 113.25 83.25 113.25
751159 1 116.25 89.25 113.25
751161 1 122.25 89.25 113.25
751241 1 122.25 92.25 113.25
757320 1 119.25 80.25 116.25
757400 1 119.25 83.25 116.25
764039 1 116.25 92.25 119.25
764040 1 119.25 92.25 119.25
770280 1 119.25 86.25 122.25
770515 1 104.25 95.25 122.25
808448 1 143.25 77.25 140.25
