ITEM: TIMESTEP
66092
ITEM: NUMBER OF ATOMS
17
ITEM: BOX BOUNDS pp pp pp
0 240
0 240
0 240
ITEM: ATOMS id type x y z c_myKE c_myPE
713320 1 120.184 108.637 92.7091 0 -6.25157
725870 1 85.0908 97.831 101.009 0 -6.25048
790427 1 78.6788 123.341 130.987 0 -6.80772
802590 1 89.6504 91.4034 134.154 0 -7.3108
802512 1 92.5903 94.5534 134.26 0 -7.76666
290515 1 92.8434 97.8393 134.305 0 -7.70049
796826 1 75.4298 123.471 134.239 0 -6.54866
290590 1 89.4231 94.5576 137.457 0 -7.86478
316738 1 49.9955 118.232 148.873 0 -6.24858
233138 1 48.3984 102.625 109.002 0 -6.25023
752119 1 116.628 124.927 115.375 0 -6.25015
789793 1 94.4498 96.094 132.641 0 -7.15854
795554 1 99.445 68.7814 135.764 0 -6.24989
789790 1 88.0194 92.8742 135.815 0 -7.75632
802431 1 91.0856 92.9862 135.935 0 -8.00063
284192 1 91.1849 96.1527 135.972 0 -7.88432
303390 1 87.7619 93.0007 138.835 0 -7.60446
