ITEM: TIMESTEP
66134
ITEM: NUMBER OF ATOMS
20
ITEM: BOX BOUNDS pp pp pp
0 240
0 240
0 240
ITEM: ATOMS id type x y z c_myKE c_myPE
693639 1 114.959 89.4822 85.0855 0 -6.34153
718281 1 124.597 53.1607 97.8358 0 -6.25393
744764 1 132.813 88.3416 110.505 0 -6.56963
757484 1 132.815 84.9744 113.873 0 -6.57041
751165 1 136.122 88.2981 113.828 0 -7.51798
770025 1 72.3251 75.5066 123.361 0 -6.25617
815066 1 75.5115 83.1253 145.692 0 -6.25683
815150 1 88.2802 88.2665 150.129 0 -6.25508
833873 1 97.7088 69.0699 158.591 0 -7.06305
188275 1 102.609 97.4666 84.7269 0 -6.25722
270671 1 87.938 65.5976 126.208 0 -6.8204
270752 1 91.1933 68.8514 126.08 0 -6.54853
265227 1 77.1187 103.871 124.949 0 -6.2539
278599 1 113.436 128.138 129.383 0 -6.25238
310127 1 140.897 108.997 145.329 0 -6.25311
316106 1 71.977 94.3018 150.477 0 -6.25771
323332 1 156.839 122.997 153.642 0 -6.25231
334834 1 97.4584 72.0259 158.305 0 -6.75902
328354 1 99.3656 70.5909 157.105 0 -6.8589
354108 1 77.115 75.1481 167.682 0 -6.25737
