ITEM: TIMESTEP
66168
ITEM: NUMBER OF ATOMS
18
ITEM: BOX BOUNDS pp pp pp
0 240
0 240
0 240
ITEM: ATOMS id type x y z c_myKE c_myPE
745640 1 118.344 121.492 108.403 0 -6.86827
745720 1 118.13 124.522 108.692 0 -7.03711
770356 1 107.243 86.479 121.306 0 -6.54318
783955 1 110.551 121.417 126.362 0 -6.68931
790357 1 110.703 118.212 129.716 0 -6.93125
278359 1 115.217 120.154 131.035 0 -6.68139
784117 1 110.511 124.716 129.815 0 -6.54222
784516 1 107.527 140.644 129.668 0 -6.54708
285238 1 108.539 136.043 134.259 0 -6.54629
797466 1 75.5162 146.933 136.135 0 -6.257
854426 1 75.5097 123.362 162.893 0 -6.25242
233721 1 119.867 123.148 106.922 0 -7.06843
241064 1 65.6031 163.214 110.269 0 -6.81756
247465 1 68.8592 163.343 113.524 0 -6.54616
264757 1 109.014 84.7088 122.889 0 -6.83145
285229 1 81.5375 135.768 132.584 0 -6.25453
297636 1 105.856 121.72 142.188 0 -6.25261
329399 1 113.422 112.185 154.94 0 -6.25675
