ITEM: TIMESTEP
67000
ITEM: NUMBER OF ATOMS
24
ITEM: BOX BOUNDS pp pp pp
0 240
0 240
0 240
ITEM: ATOMS id type x y z
214037 1 108.75 105.75 99.75
220517 1 108.75 108.75 102.75
271313 1 96.75 93.75 126.75
271315 1 102.75 93.75 126.75
271392 1 93.75 96.75 126.75
277874 1 99.75 99.75 129.75
289471 1 90.75 54.75 135.75
289705 1 72.75 63.75 135.75
361311 1 90.75 108.75 168.75
366752 1 93.75 72.75 171.75
432446 1 135.75 135.75 201.75
693394 1 101.25 83.25 86.25
693473 1 98.25 86.25 86.25
726122 1 125.25 110.25 101.25
726202 1 125.25 113.25 101.25
732522 1 125.25 110.25 104.25
758593 1 98.25 128.25 116.25
776992 1 95.25 98.25 125.25
783314 1 101.25 95.25 128.25
789713 1 98.25 95.25 131.25
832510 1 89.25 20.25 152.25
854193 1 98.25 113.25 161.25
866031 1 92.25 77.25 167.25
956193 1 98.25 98.25 209.25
