ITEM: TIMESTEP
65000
ITEM: NUMBER OF ATOMS
22
ITEM: BOX BOUNDS pp pp pp
0 240
0 240
0 240
ITEM: ATOMS id type x y z c_myKE c_myPE
681957 1 110.51 135.708 78.8226 0.0529975 -6.63901
694362 1 124.705 119.984 85.1882 0.0650867 -6.41626
213725 1 131.013 92.5384 97.7039 0.230913 -7.30325
213651 1 149.639 88.227 101.176 0.174662 -7.53135
732202 1 127.902 93.0009 100.926 0.179557 -7.90526
725723 1 127.96 95.8861 100.658 0.0619793 -7.98537
220284 1 131.122 95.6973 100.735 0.0860152 -6.53378
738989 1 85.3253 111.85 107.592 0.0893427 -6.77302
777558 1 115.155 120.189 123.297 0.15292 -6.27714
801800 1 120.216 64.2649 139.332 0.0908751 -6.1385
808201 1 123.147 64.333 142.559 0.0582479 -7.28365
176437 1 109.121 137.494 80.3534 0.127451 -6.77039
687481 1 120.101 102.503 84.6609 0.308331 -7.12573
700281 1 121.796 102.405 86.4626 0.0545616 -7.1421
194365 1 132.498 84.601 89.9863 0.143195 -7.00611
719324 1 128.063 92.7914 97.5455 0.0794829 -7.82487
725570 1 152.124 84.4069 100.984 0.300085 -7.4501
213883 1 126.02 94.2883 99.3752 0.0057883 -7.9841
219971 1 151.679 86.4102 102.527 0.130474 -7.67976
220363 1 126.167 97.3685 102.269 0.028778 -7.24946
220204 1 128.144 96.2295 104.116 0.0214838 -7.48813
233311 1 89.8006 107.141 108.83 0.287093 -6.03946
