ITEM: TIMESTEP
67010
ITEM: NUMBER OF ATOMS
12
ITEM: BOX BOUNDS pp pp pp
0 240
0 240
0 240
ITEM: ATOMS id type x y z c_myKE c_myPE
200843 1 127.711 85.1056 91.5175 0 -7.50816
719242 1 124.699 84.8709 94.4445 0 -7.1021
207084 1 127.611 85.1719 94.5759 0 -7.86293
719082 1 127.831 88.3048 94.5496 0 -7.97308
213563 1 131.004 88.2122 94.5895 0 -7.30108
219964 1 128.015 88.1028 97.8234 0 -7.58999
724616 1 172.453 48.0377 101.015 0 -6.25378
206914 1 97.4897 77.107 94.2965 0 -6.25498
207243 1 129.492 89.9351 93.0798 0 -7.33008
240128 1 145.331 124.946 112.18 0 -6.25499
259800 1 118.49 144.208 121.677 0 -6.54731
266201 1 121.745 144.082 124.932 0 -6.81913
