ITEM: TIMESTEP
65000
ITEM: NUMBER OF ATOMS
22
ITEM: BOX BOUNDS pp pp pp
0 240
0 240
0 240
ITEM: ATOMS id type x y z
213879 1 114.75 99.75 99.75
220121 1 120.75 93.75 102.75
226669 1 84.75 99.75 105.75
233076 1 105.75 99.75 108.75
252113 1 96.75 93.75 117.75
252114 1 99.75 93.75 117.75
252277 1 108.75 99.75 117.75
252278 1 111.75 99.75 117.75
252360 1 117.75 102.75 117.75
258427 1 78.75 90.75 120.75
258598 1 111.75 96.75 120.75
258678 1 111.75 99.75 120.75
284363 1 126.75 102.75 132.75
719559 1 116.25 104.25 98.25
725957 1 110.25 104.25 101.25
732036 1 107.25 92.25 104.25
738675 1 104.25 101.25 107.25
770519 1 116.25 95.25 122.25
770753 1 98.25 104.25 122.25
776588 1 83.25 83.25 125.25
783386 1 77.25 98.25 128.25
802356 1 107.25 89.25 137.25
