ITEM: TIMESTEP
66232
ITEM: NUMBER OF ATOMS
14
ITEM: BOX BOUNDS pp pp pp
0 240
0 240
0 240
ITEM: ATOMS id type x y z
128971 1 30.75 36.75 60.75
181957 1 108.75 102.75 84.75
245797 1 108.75 96.75 114.75
252198 1 111.75 96.75 117.75
264921 1 120.75 93.75 123.75
277395 1 102.75 81.75 129.75
738114 1 101.25 80.25 107.25
751317 1 110.25 95.25 113.25
751398 1 113.25 98.25 113.25
757718 1 113.25 95.25 116.25
782995 1 104.25 83.25 128.25
796195 1 104.25 98.25 134.25
803242 1 125.25 122.25 137.25
803321 1 122.25 125.25 137.25
