ITEM: TIMESTEP
65000
ITEM: NUMBER OF ATOMS
22
ITEM: BOX BOUNDS pp pp pp
0 240
0 240
0 240
ITEM: ATOMS id type x y z
188276 1 105.75 99.75 87.75
201076 1 105.75 99.75 93.75
207554 1 99.75 102.75 96.75
220270 1 87.75 99.75 102.75
226510 1 87.75 93.75 105.75
226835 1 102.75 105.75 105.75
226836 1 105.75 105.75 105.75
226837 1 108.75 105.75 105.75
227315 1 102.75 123.75 105.75
233394 1 99.75 111.75 108.75
233797 1 108.75 126.75 108.75
245951 1 90.75 102.75 114.75
252515 1 102.75 108.75 117.75
252674 1 99.75 114.75 117.75
252677 1 108.75 114.75 117.75
265316 1 105.75 108.75 123.75
271716 1 105.75 108.75 126.75
271954 1 99.75 117.75 126.75
719555 1 104.25 104.25 98.25
738756 1 107.25 104.25 107.25
777309 1 86.25 110.25 125.25
782835 1 104.25 77.25 128.25
