ITEM: TIMESTEP
67000
ITEM: NUMBER OF ATOMS
22
ITEM: BOX BOUNDS pp pp pp
0 240
0 240
0 240
ITEM: ATOMS id type x y z
194516 1 105.75 93.75 90.75
245006 1 135.75 66.75 114.75
257894 1 159.75 69.75 120.75
258524 1 129.75 93.75 120.75
258603 1 126.75 96.75 120.75
265005 1 132.75 96.75 123.75
271404 1 129.75 96.75 126.75
354680 1 117.75 99.75 165.75
668602 1 125.25 113.25 74.25
669492 1 155.25 146.25 74.25
687732 1 155.25 110.25 83.25
687801 1 122.25 113.25 83.25
770444 1 131.25 92.25 122.25
770524 1 131.25 95.25 122.25
783812 1 155.25 113.25 128.25
784598 1 113.25 143.25 128.25
803151 1 92.25 119.25 137.25
860280 1 119.25 101.25 164.25
860359 1 116.25 104.25 164.25
866679 1 116.25 101.25 167.25
866760 1 119.25 104.25 167.25
878999 1 116.25 83.25 173.25
