ITEM: TIMESTEP
67000
ITEM: NUMBER OF ATOMS
22
ITEM: BOX BOUNDS pp pp pp
0 240
0 240
0 240
ITEM: ATOMS id type x y z
194764 1 129.75 102.75 90.75
207641 1 120.75 105.75 96.75
220358 1 111.75 102.75 102.75
220362 1 123.75 102.75 102.75
220519 1 114.75 108.75 102.75
226602 1 123.75 96.75 105.75
226674 1 99.75 99.75 105.75
226923 1 126.75 108.75 105.75
227079 1 114.75 114.75 105.75
233161 1 120.75 102.75 108.75
239406 1 135.75 96.75 111.75
239634 1 99.75 105.75 111.75
252760 1 117.75 117.75 117.75
264523 1 126.75 78.75 123.75
265318 1 111.75 108.75 123.75
265400 1 117.75 111.75 123.75
270845 1 132.75 75.75 126.75
290676 1 105.75 99.75 135.75
725962 1 125.25 104.25 101.25
726042 1 125.25 107.25 101.25
738525 1 134.25 95.25 107.25
745241 1 122.25 107.25 110.25
