ITEM: TIMESTEP
67000
ITEM: NUMBER OF ATOMS
18
ITEM: BOX BOUNDS pp pp pp
0 240
0 240
0 240
ITEM: ATOMS id type x y z
201163 1 126.75 102.75 93.75
201166 1 135.75 102.75 93.75
220205 1 132.75 96.75 102.75
220275 1 102.75 99.75 102.75
220357 1 108.75 102.75 102.75
233083 1 126.75 99.75 108.75
239639 1 114.75 105.75 111.75
239641 1 120.75 105.75 111.75
239801 1 120.75 111.75 111.75
246039 1 114.75 105.75 114.75
252283 1 126.75 99.75 117.75
258842 1 123.75 105.75 120.75
259002 1 123.75 111.75 120.75
719313 1 98.25 95.25 98.25
719395 1 104.25 98.25 98.25
764366 1 137.25 104.25 119.25
777962 1 125.25 134.25 125.25
790282 1 125.25 116.25 131.25
