ITEM: TIMESTEP
66000
ITEM: NUMBER OF ATOMS
17
ITEM: BOX BOUNDS pp pp pp
0 240
0 240
0 240
ITEM: ATOMS id type x y z
188914 1 99.75 123.75 87.75
194998 1 111.75 111.75 90.75
201316 1 105.75 108.75 93.75
202678 1 111.75 159.75 93.75
207393 1 96.75 96.75 96.75
208434 1 99.75 135.75 96.75
208673 1 96.75 144.75 96.75
258990 1 87.75 111.75 120.75
687638 1 113.25 107.25 83.25
706913 1 98.25 110.25 92.25
707794 1 101.25 143.25 92.25
707872 1 95.25 146.25 92.25
713313 1 98.25 110.25 95.25
726273 1 98.25 116.25 101.25
739151 1 92.25 119.25 107.25
758351 1 92.25 119.25 116.25
764591 1 92.25 113.25 119.25
