ITEM: TIMESTEP
65998
ITEM: NUMBER OF ATOMS
21
ITEM: BOX BOUNDS pp pp pp
0 240
0 240
0 240
ITEM: ATOMS id type x y z c_myKE c_myPE
675001 1 123.531 111.84 69.1804 0 -7.03789
720115 1 100.952 124.606 94.4982 0 -8.24564
208034 1 97.7919 124.629 97.785 0 -8.46119
744273 1 95.8893 67.189 108.655 0 -6.25453
776987 1 76.7636 97.8366 124.618 0 -6.82405
783388 1 80.018 97.9566 127.876 0 -6.54688
112996 1 103.866 160.053 46.4493 0 -6.25378
150203 1 128.094 110.285 67.6339 0 -6.86419
150283 1 124.974 113.698 67.3996 0 -6.6985
201476 1 99.2798 123.12 92.8746 0 -7.77892
201884 1 129.391 129.392 93.0583 0 -6.25239
214355 1 99.3251 119.937 95.9569 0 -7.72566
719953 1 96.1107 123.117 96.1518 0 -7.66944
220835 1 100.767 121.699 97.4928 0 -8.55211
214515 1 100.882 124.779 97.6016 0 -8.49876
720035 1 102.635 126.228 96.1774 0 -8.15966
214595 1 100.889 127.992 97.6206 0 -7.67458
213318 1 112.195 75.1613 99.442 0 -6.25458
220914 1 97.5553 124.744 100.717 0 -7.28755
220915 1 99.4149 126.331 99.2831 0 -7.99331
257642 1 123.007 57.959 121.773 0 -6.25493
