ITEM: TIMESTEP
65998
ITEM: NUMBER OF ATOMS
21
ITEM: BOX BOUNDS pp pp pp
0 240
0 240
0 240
ITEM: ATOMS id type x y z
156602 1 123.75 111.75 72.75
208115 1 102.75 123.75 96.75
214514 1 99.75 123.75 99.75
232273 1 96.75 69.75 108.75
265067 1 78.75 99.75 123.75
271468 1 81.75 99.75 126.75
618595 1 104.25 158.25 50.25
662123 1 128.25 110.25 71.25
662202 1 125.25 113.25 71.25
713634 1 101.25 122.25 95.25
713803 1 128.25 128.25 95.25
719954 1 101.25 119.25 98.25
720033 1 98.25 122.25 98.25
720034 1 101.25 122.25 98.25
720114 1 101.25 125.25 98.25
720115 1 104.25 125.25 98.25
720194 1 101.25 128.25 98.25
725238 1 113.25 77.25 101.25
726513 1 98.25 125.25 101.25
726514 1 101.25 125.25 101.25
769641 1 122.25 62.25 122.25
