ITEM: TIMESTEP
67000
ITEM: NUMBER OF ATOMS
22
ITEM: BOX BOUNDS pp pp pp
0 240
0 240
0 240
ITEM: ATOMS id type x y z
143390 1 87.75 96.75 66.75
195148 1 81.75 117.75 90.75
201468 1 81.75 114.75 93.75
201549 1 84.75 117.75 93.75
240449 1 144.75 135.75 111.75
265240 1 117.75 105.75 123.75
278025 1 72.75 105.75 129.75
278104 1 69.75 108.75 129.75
284996 1 105.75 126.75 132.75
303707 1 78.75 108.75 141.75
303786 1 75.75 111.75 141.75
323314 1 99.75 123.75 150.75
330282 1 123.75 144.75 153.75
350125 1 132.75 168.75 162.75
635381 1 62.25 68.25 59.25
724976 1 47.25 68.25 101.25
778201 1 122.25 143.25 125.25
796915 1 104.25 125.25 134.25
796916 1 107.25 125.25 134.25
810595 1 104.25 158.25 140.25
873954 1 101.25 134.25 170.25
880771 1 152.25 149.25 173.25
