ITEM: TIMESTEP
65000
ITEM: NUMBER OF ATOMS
11
ITEM: BOX BOUNDS pp pp pp
0 240
0 240
0 240
ITEM: ATOMS id type x y z c_myKE c_myPE
706756 1 107.324 104.055 89.7324 0.116872 -7.35532
739635 1 104.614 139.167 105.536 0.131378 -6.23547
150351 1 90.2765 116.678 65.5017 0.0984598 -7.12595
168518 1 112.206 77.0372 75.134 0.023116 -6.43661
699788 1 81.2914 80.4191 84.8067 0.236271 -6.19293
201157 1 107.162 100.976 93.0727 0.140366 -7.17441
207555 1 102.437 102.698 94.3427 0.131532 -6.9759
214752 1 93.1434 132.608 97.6346 0.0340674 -7.18866
214751 1 89.924 135.85 97.6878 0.136237 -5.885
251721 1 122.298 75.3086 118.494 0.0290405 -5.38934
257632 1 91.3919 54.9067 122.26 0.182225 -6.01261
