ITEM: TIMESTEP
67183
ITEM: NUMBER OF ATOMS
12
ITEM: BOX BOUNDS pp pp pp
0 240
0 240
0 240
ITEM: ATOMS id type x y z c_myKE c_myPE
765241 1 123.355 137.362 120.173 0 -6.25406
796980 1 54.4731 127.838 134.218 0 -7.37423
790661 1 57.5573 130.927 132.992 0 -6.28693
291382 1 56.3313 127.837 136.077 0 -7.37449
291381 1 54.4721 129.695 136.077 0 -7.37277
212914 1 97.4889 59.216 97.4964 0 -6.25483
251709 1 83.4838 77.1045 116.635 0 -6.25539
795863 1 67.2139 86.3564 135.588 0 -7.06556
284581 1 55.9068 110.32 134.447 0 -6.54145
296744 1 67.2141 84.5331 137.407 0 -7.06389
290424 1 64.7086 87.7748 138.826 0 -6.78587
290901 1 56.0213 107.068 137.711 0 -6.82312
