ITEM: TIMESTEP
66110
ITEM: NUMBER OF ATOMS
14
ITEM: BOX BOUNDS pp pp pp
0 240
0 240
0 240
ITEM: ATOMS id type x y z c_myKE c_myPE
694677 1 111.844 132.929 85.0868 0 -6.25062
712752 1 94.6173 88.2065 92.6953 0 -7.6146
731874 1 97.7352 84.8271 99.0672 0 -6.6271
772272 1 94.6569 164.833 123.357 0 -6.2642
207073 1 93.0429 83.6141 91.104 0 -7.01891
195712 1 91.1009 140.904 89.8673 0 -6.25284
207072 1 89.7287 83.449 94.2733 0 -6.71296
206278 1 113.425 49.6587 96.2475 0 -6.25456
213472 1 93.153 83.2949 97.6277 0 -6.80389
213553 1 96.2795 86.708 97.3051 0 -7.69956
238521 1 121.749 59.2186 110.25 0 -6.25582
240591 1 89.8612 142.138 110.256 0 -6.25275
266738 1 46.4427 164.472 121.754 0 -6.25383
277942 1 59.1999 99.4291 131.335 0 -6.2536
