ITEM: TIMESTEP
68251
ITEM: NUMBER OF ATOMS
14
ITEM: BOX BOUNDS pp pp pp
0 240
0 240
0 240
ITEM: ATOMS id type x y z
252112 1 93.75 93.75 117.75
258433 1 96.75 90.75 120.75
258512 1 93.75 93.75 120.75
258513 1 96.75 93.75 120.75
258592 1 93.75 96.75 120.75
264913 1 96.75 93.75 123.75
327633 1 96.75 45.75 153.75
353716 1 105.75 63.75 165.75
745155 1 104.25 104.25 110.25
751556 1 107.25 104.25 113.25
751635 1 104.25 107.25 113.25
770513 1 98.25 95.25 122.25
821070 1 89.25 71.25 146.25
853061 1 62.25 71.25 161.25
