ITEM: TIMESTEP
69181
ITEM: NUMBER OF ATOMS
26
ITEM: BOX BOUNDS pp pp pp
0 240
0 240
0 240
ITEM: ATOMS id type x y z
214270 1 87.75 114.75 99.75
227550 1 87.75 132.75 105.75
227631 1 90.75 135.75 105.75
233951 1 90.75 132.75 108.75
265901 1 180.75 129.75 123.75
265981 1 180.75 132.75 123.75
279331 1 150.75 153.75 129.75
279412 1 153.75 156.75 129.75
284201 1 120.75 96.75 132.75
284282 1 123.75 99.75 132.75
285651 1 150.75 150.75 132.75
285732 1 153.75 153.75 132.75
290602 1 123.75 96.75 135.75
291971 1 150.75 147.75 135.75
298039 1 114.75 135.75 138.75
304359 1 114.75 132.75 141.75
304438 1 111.75 135.75 141.75
310523 1 126.75 123.75 144.75
777900 1 179.25 131.25 125.25
796990 1 89.25 128.25 134.25
797650 1 149.25 152.25 134.25
803970 1 149.25 149.25 137.25
804049 1 146.25 152.25 137.25
822442 1 125.25 122.25 146.25
834843 1 128.25 107.25 152.25
867962 1 125.25 149.25 167.25
