ITEM: TIMESTEP
65000
ITEM: NUMBER OF ATOMS
11
ITEM: BOX BOUNDS pp pp pp
0 240
0 240
0 240
ITEM: ATOMS id type x y z c_myKE c_myPE
668438 1 113.585 107.273 69.1936 0.240088 -6.37488
707223 1 63.7463 123.277 91.573 0.182984 -6.47603
733155 1 102.385 135.839 102.124 0.208433 -6.46058
252358 1 110.613 99.1536 114.876 0.0665281 -6.19157
783786 1 75.7524 114.014 129.658 0.0732152 -7.70836
783866 1 75.4695 117.005 129.303 0.1484 -6.85003
169134 1 35.2005 100.485 75.2597 0.156901 -5.73298
719790 1 84.7401 113.011 96.3169 0.0343741 -6.477
265551 1 89.912 116.374 125.323 0.149784 -6.3924
271787 1 76.9515 112.227 128.011 0.0129372 -6.98987
278266 1 73.7778 115.491 130.865 0.443765 -7.22896
