ITEM: TIMESTEP
66167
ITEM: NUMBER OF ATOMS
21
ITEM: BOX BOUNDS pp pp pp
0 240
0 240
0 240
ITEM: ATOMS id type x y z
168999 1 114.75 96.75 78.75
175398 1 111.75 96.75 81.75
175399 1 114.75 96.75 81.75
272122 1 123.75 123.75 126.75
272280 1 117.75 129.75 126.75
284363 1 126.75 102.75 132.75
284442 1 123.75 105.75 132.75
285001 1 120.75 126.75 132.75
687398 1 113.25 98.25 83.25
777720 1 119.25 125.25 125.25
784040 1 119.25 122.25 128.25
784119 1 116.25 125.25 128.25
784202 1 125.25 128.25 128.25
784281 1 122.25 131.25 128.25
790520 1 119.25 125.25 131.25
790601 1 122.25 128.25 131.25
796106 1 77.25 95.25 134.25
802426 1 77.25 92.25 137.25
802507 1 80.25 95.25 137.25
829004 1 131.25 128.25 149.25
829889 1 146.25 161.25 149.25
