ITEM: TIMESTEP
87234
ITEM: NUMBER OF ATOMS
25
ITEM: BOX BOUNDS pp pp pp
0 240
0 240
0 240
ITEM: ATOMS id type x y z
169632 1 93.75 120.75 78.75
185312 1 93.75 228.75 84.75
185313 1 96.75 228.75 84.75
191873 1 96.75 234.75 87.75
196910 1 87.75 183.75 90.75
204353 1 96.75 222.75 93.75
207873 1 96.75 114.75 96.75
208435 1 102.75 135.75 96.75
227393 1 96.75 126.75 105.75
240593 1 96.75 141.75 111.75
678270 1 89.25 236.25 77.25
684751 1 92.25 239.25 80.25
702670 1 89.25 191.25 89.25
702751 1 92.25 194.25 89.25
708749 1 86.25 179.25 92.25
709151 1 92.25 194.25 92.25
709948 1 83.25 224.25 92.25
710109 1 86.25 230.25 92.25
710110 1 89.25 230.25 92.25
712992 1 95.25 98.25 95.25
713072 1 95.25 101.25 95.25
713317 1 110.25 110.25 95.25
716351 1 92.25 224.25 95.25
719557 1 110.25 104.25 98.25
725876 1 107.25 101.25 101.25
