ITEM: TIMESTEP
65000
ITEM: NUMBER OF ATOMS
14
ITEM: BOX BOUNDS pp pp pp
0 240
0 240
0 240
ITEM: ATOMS id type x y z
220196 1 105.75 96.75 102.75
232911 1 90.75 93.75 108.75
233237 1 108.75 105.75 108.75
245558 1 111.75 87.75 114.75
252515 1 102.75 108.75 117.75
290114 1 99.75 78.75 135.75
290196 1 105.75 81.75 135.75
732433 1 98.25 107.25 104.25
732515 1 104.25 110.25 104.25
738756 1 107.25 104.25 107.25
751637 1 110.25 107.25 113.25
770517 1 110.25 95.25 122.25
777069 1 86.25 101.25 125.25
783479 1 116.25 101.25 128.25
