ITEM: TIMESTEP
66165
ITEM: NUMBER OF ATOMS
19
ITEM: BOX BOUNDS pp pp pp
0 240
0 240
0 240
ITEM: ATOMS id type x y z
188917 1 108.75 123.75 87.75
194832 1 93.75 105.75 90.75
195156 1 105.75 117.75 90.75
220276 1 105.75 99.75 102.75
220514 1 99.75 108.75 102.75
253071 1 90.75 129.75 117.75
258754 1 99.75 102.75 120.75
258916 1 105.75 108.75 120.75
259075 1 102.75 114.75 120.75
271953 1 96.75 117.75 126.75
700431 1 92.25 107.25 89.25
719389 1 86.25 98.25 98.25
738911 1 92.25 110.25 107.25
744917 1 110.25 95.25 110.25
758113 1 98.25 110.25 116.25
758276 1 107.25 116.25 116.25
770916 1 107.25 110.25 122.25
777633 1 98.25 122.25 125.25
783640 1 119.25 107.25 128.25
