ITEM: TIMESTEP
70233
ITEM: NUMBER OF ATOMS
22
ITEM: BOX BOUNDS pp pp pp
0 240
0 240
0 240
ITEM: ATOMS id type x y z
207393 1 96.75 96.75 96.75
220994 1 99.75 126.75 102.75
259315 1 102.75 123.75 120.75
259554 1 99.75 132.75 120.75
272518 1 111.75 138.75 126.75
285076 1 105.75 129.75 132.75
310839 1 114.75 135.75 144.75
330361 1 120.75 147.75 153.75
330443 1 126.75 150.75 153.75
330685 1 132.75 159.75 153.75
356604 1 129.75 171.75 165.75
375319 1 114.75 153.75 174.75
719393 1 98.25 98.25 98.25
725953 1 98.25 104.25 101.25
778118 1 113.25 140.25 125.25
784358 1 113.25 134.25 128.25
803883 1 128.25 146.25 137.25
810119 1 116.25 140.25 140.25
816759 1 116.25 149.25 143.25
829568 1 143.25 149.25 149.25
829880 1 119.25 161.25 149.25
849166 1 137.25 164.25 158.25
