ITEM: TIMESTEP
70233
ITEM: NUMBER OF ATOMS
22
ITEM: BOX BOUNDS pp pp pp
0 240
0 240
0 240
ITEM: ATOMS id type x y z
207385 1 72.75 96.75 96.75
221073 1 96.75 129.75 102.75
252918 1 111.75 123.75 117.75
252997 1 108.75 126.75 117.75
265321 1 120.75 108.75 123.75
291964 1 129.75 147.75 135.75
298284 1 129.75 144.75 138.75
298363 1 126.75 147.75 138.75
356447 1 138.75 165.75 165.75
363080 1 117.75 174.75 168.75
369479 1 114.75 174.75 171.75
376531 1 150.75 198.75 174.75
726593 1 98.25 128.25 101.25
732913 1 98.25 125.25 104.25
732994 1 101.25 128.25 104.25
810363 1 128.25 149.25 140.25
829807 1 140.25 158.25 149.25
836208 1 143.25 158.25 152.25
875078 1 113.25 176.25 170.25
879879 1 116.25 116.25 173.25
880915 1 104.25 155.25 173.25
881154 1 101.25 164.25 173.25
