ITEM: TIMESTEP
66000
ITEM: NUMBER OF ATOMS
10
ITEM: BOX BOUNDS pp pp pp
0 240
0 240
0 240
ITEM: ATOMS id type x y z c_myKE c_myPE
188832 1 94.8938 121.653 90.9605 0.0499927 -7.14782
214351 1 88.0099 115.195 97.8516 0.0885489 -6.45641
732203 1 127.899 96.0671 102.435 0.182002 -6.56634
221797 1 110.375 161.464 101.142 0.318971 -5.65758
656051 1 154.381 121.654 67.463 0.0319826 -6.72468
164505 1 70.6736 172.793 71.5895 0.293435 -6.31332
713553 1 96.6675 121.442 93.034 0.364002 -7.13747
208582 1 61.334 144.402 96.2162 0.0764191 -6.74388
277714 1 99.2998 90.8405 131.216 0.322099 -5.87879
305079 1 115.161 161.314 142.287 0.0759606 -5.83853
