ITEM: TIMESTEP
66255
ITEM: NUMBER OF ATOMS
16
ITEM: BOX BOUNDS pp pp pp
0 240
0 240
0 240
ITEM: ATOMS id type x y z
170197 1 108.75 141.75 78.75
170278 1 111.75 144.75 78.75
171387 1 78.75 186.75 78.75
176677 1 108.75 144.75 81.75
182189 1 84.75 111.75 84.75
188982 1 63.75 126.75 87.75
202672 1 93.75 159.75 93.75
214196 1 105.75 111.75 99.75
220597 1 108.75 111.75 102.75
253486 1 135.75 144.75 117.75
284914 1 99.75 123.75 132.75
284995 1 102.75 126.75 132.75
292197 1 108.75 156.75 135.75
714592 1 95.25 158.25 95.25
731950 1 89.25 89.25 104.25
796995 1 104.25 128.25 134.25
