ITEM: TIMESTEP
66541
ITEM: NUMBER OF ATOMS
19
ITEM: BOX BOUNDS pp pp pp
0 240
0 240
0 240
ITEM: ATOMS id type x y z
239981 1 180.75 117.75 111.75
264925 1 132.75 93.75 123.75
265003 1 126.75 96.75 123.75
265004 1 129.75 96.75 123.75
265796 1 105.75 126.75 123.75
744515 1 104.25 80.25 110.25
750914 1 101.25 80.25 113.25
764124 1 131.25 95.25 119.25
764203 1 128.25 98.25 119.25
770444 1 131.25 92.25 122.25
770448 1 143.25 92.25 122.25
770523 1 128.25 95.25 122.25
770524 1 131.25 95.25 122.25
770602 1 125.25 98.25 122.25
776849 1 146.25 92.25 125.25
776925 1 134.25 95.25 125.25
777003 1 128.25 98.25 125.25
821560 1 119.25 89.25 146.25
822684 1 131.25 131.25 146.25
