ITEM: TIMESTEP
65147
ITEM: NUMBER OF ATOMS
15
ITEM: BOX BOUNDS pp pp pp
0 240
0 240
0 240
ITEM: ATOMS id type x y z
232280 1 117.75 69.75 108.75
238601 1 120.75 66.75 111.75
251877 1 108.75 84.75 117.75
252117 1 108.75 93.75 117.75
264513 1 96.75 78.75 123.75
264918 1 111.75 93.75 123.75
725795 1 104.25 98.25 101.25
738043 1 128.25 77.25 107.25
738516 1 107.25 95.25 107.25
738598 1 113.25 98.25 107.25
743958 1 113.25 59.25 110.25
744747 1 80.25 89.25 110.25
750839 1 116.25 77.25 113.25
776837 1 110.25 92.25 125.25
783077 1 110.25 86.25 128.25
