ITEM: TIMESTEP
66000
ITEM: NUMBER OF ATOMS
18
ITEM: BOX BOUNDS pp pp pp
0 240
0 240
0 240
ITEM: ATOMS id type x y z
194443 1 126.75 90.75 90.75
200761 1 120.75 87.75 93.75
200842 1 123.75 90.75 93.75
207162 1 123.75 87.75 96.75
219572 1 153.75 72.75 102.75
221168 1 141.75 132.75 102.75
227568 1 141.75 132.75 105.75
264914 1 99.75 93.75 123.75
271234 1 99.75 90.75 126.75
681000 1 119.25 98.25 80.25
706362 1 125.25 89.25 92.25
706363 1 128.25 89.25 92.25
726920 1 119.25 140.25 101.25
733009 1 146.25 128.25 104.25
752421 1 62.25 137.25 113.25
789473 1 98.25 86.25 131.25
803162 1 125.25 119.25 137.25
803482 1 125.25 131.25 137.25
