ITEM: TIMESTEP
65000
ITEM: NUMBER OF ATOMS
24
ITEM: BOX BOUNDS pp pp pp
0 240
0 240
0 240
ITEM: ATOMS id type x y z
208032 1 93.75 120.75 96.75
214117 1 108.75 108.75 99.75
220677 1 108.75 114.75 102.75
226682 1 123.75 99.75 105.75
226913 1 96.75 108.75 105.75
227071 1 90.75 114.75 105.75
227153 1 96.75 117.75 105.75
227312 1 93.75 123.75 105.75
239714 1 99.75 108.75 111.75
239798 1 111.75 111.75 111.75
240202 1 123.75 126.75 111.75
246676 1 105.75 129.75 114.75
259164 1 129.75 117.75 120.75
272124 1 129.75 123.75 126.75
272284 1 129.75 129.75 126.75
700593 1 98.25 113.25 89.25
732434 1 101.25 107.25 104.25
739072 1 95.25 116.25 107.25
745389 1 86.25 113.25 110.25
745472 1 95.25 116.25 110.25
758192 1 95.25 113.25 116.25
758198 1 113.25 113.25 116.25
771481 1 122.25 131.25 122.25
777963 1 128.25 134.25 125.25
