ITEM: TIMESTEP
66000
ITEM: NUMBER OF ATOMS
16
ITEM: BOX BOUNDS pp pp pp
0 240
0 240
0 240
ITEM: ATOMS id type x y z
202195 1 102.75 141.75 93.75
202434 1 99.75 150.75 93.75
207555 1 102.75 102.75 96.75
215473 1 96.75 159.75 99.75
228274 1 99.75 159.75 105.75
233231 1 90.75 105.75 108.75
234190 1 87.75 141.75 108.75
240038 1 111.75 120.75 111.75
245794 1 99.75 96.75 114.75
245953 1 96.75 102.75 114.75
707157 1 110.25 119.25 92.25
714030 1 89.25 137.25 95.25
746031 1 92.25 137.25 110.25
751712 1 95.25 110.25 113.25
752596 1 107.25 143.25 113.25
758035 1 104.25 107.25 116.25
