ITEM: TIMESTEP
66469
ITEM: NUMBER OF ATOMS
11
ITEM: BOX BOUNDS pp pp pp
0 240
0 240
0 240
ITEM: ATOMS id type x y z c_myKE c_myPE
636124 1 132.928 92.7011 54.4196 0 -6.25484
680741 1 57.6255 86.3401 76.763 0 -6.82067
687221 1 57.4966 89.5957 80.0179 0 -6.54915
213798 1 110.429 94.4973 102.052 0 -7.48821
220277 1 108.48 94.5291 103.762 0 -7.97949
719477 1 110.484 97.9505 105.655 0 -7.4131
738363 1 127.814 88.3021 107.405 0 -6.28377
750992 1 94.7624 79.9242 113.803 0 -6.8311
239475 1 106.224 92.9867 107.118 0 -6.77768
238434 1 97.4859 56.0224 110.238 0 -6.25421
239073 1 96.3393 81.6937 112.031 0 -6.5386
