ITEM: TIMESTEP
66000
ITEM: NUMBER OF ATOMS
27
ITEM: BOX BOUNDS pp pp pp
0 240
0 240
0 240
ITEM: ATOMS id type x y z c_myKE c_myPE
725793 1 97.6629 95.9268 101.2 0.363189 -5.58784
738749 1 85.1718 104.373 107.328 0.0605718 -6.59755
777004 1 131.063 97.7446 124.703 0.133212 -6.75601
783066 1 73.5182 85.3432 127.529 0.106375 -6.49809
783145 1 70.4667 88.1951 127.817 0.131654 -7.62568
789623 1 64.3176 91.3595 131.082 0.146066 -6.9619
789627 1 76.8113 91.635 130.896 0.102393 -6.28471
809002 1 129.559 95.9233 142.186 0.18118 -7.71909
303566 1 136.092 99.1512 142.389 0.028454 -6.81375
815564 1 133.932 101.082 143.862 0.1254 -7.26607
821803 1 130.953 94.3538 146.819 0.134707 -8.07514
309804 1 134.165 97.933 147.114 0.11191 -7.05596
853472 1 92.8239 84.772 165.103 0.0690778 -6.00105
879080 1 120.219 83.3687 177.625 0.0467332 -5.86557
206588 1 78.3432 60.9063 96.134 0.00452747 -5.48595
271306 1 71.9369 92.9722 126.286 0.481808 -7.69994
277625 1 68.8988 89.822 129.619 0.0623822 -7.22309
277626 1 72.1808 89.932 129.569 0.357418 -7.43271
802852 1 159.926 107.142 137.705 0.188556 -6.66999
814744 1 65.3698 73.8876 141.897 0.0566342 -7.07009
302825 1 68.5468 74.1469 141.984 0.334094 -7.03555
302904 1 65.8579 76.9479 142.213 0.00323126 -6.98524
297004 1 131.236 94.2643 140.917 0.0993595 -7.15573
815403 1 129.556 92.9256 145.261 0.147081 -7.56233
309882 1 126.369 96.0047 145.225 0.154973 -7.42444
297082 1 132.36 96.2769 145.435 0.0732077 -7.15693
316203 1 129.415 96.192 148.267 0.309536 -7.25403
