ITEM: TIMESTEP
66000
ITEM: NUMBER OF ATOMS
19
ITEM: BOX BOUNDS pp pp pp
0 240
0 240
0 240
ITEM: ATOMS id type x y z
144353 1 96.75 132.75 66.75
150754 1 99.75 132.75 69.75
246761 1 120.75 132.75 114.75
247085 1 132.75 144.75 114.75
259563 1 126.75 132.75 120.75
271558 1 111.75 102.75 126.75
277878 1 111.75 99.75 129.75
284282 1 123.75 99.75 132.75
643247 1 140.25 122.25 62.25
669253 1 158.25 137.25 74.25
714204 1 131.25 143.25 95.25
720596 1 107.25 143.25 98.25
720597 1 110.25 143.25 98.25
720677 1 110.25 146.25 98.25
744679 1 116.25 86.25 110.25
752201 1 122.25 128.25 113.25
758602 1 125.25 128.25 116.25
765082 1 125.25 131.25 119.25
776524 1 131.25 80.25 125.25
