ITEM: TIMESTEP
68000
ITEM: NUMBER OF ATOMS
25
ITEM: BOX BOUNDS pp pp pp
0 240
0 240
0 240
ITEM: ATOMS id type x y z c_myKE c_myPE
730848 1 145.602 41.7136 102.184 0.251508 -5.53973
744267 1 78.4601 68.8039 110.669 0.0559518 -6.30016
750747 1 78.4557 72.5109 113.712 0.0860841 -6.56974
757155 1 102.418 72.4041 115.18 0.18571 -5.81378
245708 1 78.7645 96.0023 118.699 0.181523 -5.90337
809143 1 64.1183 103.955 142.613 0.0251161 -6.43387
860508 1 79.4446 110.553 165.881 0.0462189 -7.11913
911001 1 123.461 79.8933 191.909 0.0474093 -6.69197
911483 1 129.715 98.9646 193.791 0.333106 -6.37624
187072 1 93.0483 49.7832 86.4708 0.0442132 -6.24559
738595 1 104.02 97.6383 104.041 0.278008 -7.38626
226675 1 105.998 99.4901 103.924 0.0370139 -7.26798
226597 1 106.678 96.281 107.337 0.0407763 -6.6557
732355 1 104.073 99.3677 105.847 0.0542365 -7.41884
239313 1 94.3822 93.1149 110.191 0.404161 -6.49131
303624 1 65.6826 105.728 144.223 0.228694 -6.8275
348044 1 131.216 86.707 164.317 0.0580014 -7.00372
348667 1 75.0812 115.34 164.269 0.295773 -7.35283
355068 1 78.4465 115.361 167.528 0.065318 -7.34212
355149 1 81.6099 118.433 167.505 0.0387588 -7.07826
361469 1 81.3762 115.728 170.914 0.0743662 -7.05407
386905 1 68.8244 107.231 183.593 0.475562 -5.54326
386284 1 131.251 81.4599 185.705 0.0402103 -6.37249
399082 1 125.006 81.6471 190.082 0.0236449 -7.17108
405482 1 125.025 81.5149 193.29 0.0643125 -7.01905
