ITEM: TIMESTEP
69200
ITEM: NUMBER OF ATOMS
23
ITEM: BOX BOUNDS pp pp pp
0 240
0 240
0 240
ITEM: ATOMS id type x y z
207393 1 96.75 96.75 96.75
239476 1 105.75 99.75 111.75
264997 1 108.75 96.75 123.75
265156 1 105.75 102.75 123.75
265389 1 84.75 111.75 123.75
278037 1 108.75 105.75 129.75
278192 1 93.75 111.75 129.75
322032 1 93.75 75.75 150.75
328273 1 96.75 69.75 153.75
328351 1 90.75 72.75 153.75
328592 1 93.75 81.75 153.75
346989 1 84.75 51.75 162.75
719392 1 95.25 98.25 98.25
776754 1 101.25 89.25 125.25
777793 1 98.25 128.25 125.25
796752 1 95.25 119.25 134.25
801710 1 89.25 65.25 137.25
808674 1 101.25 86.25 140.25
814994 1 101.25 83.25 143.25
815074 1 101.25 86.25 143.25
833388 1 83.25 53.25 152.25
833872 1 95.25 71.25 152.25
859152 1 95.25 59.25 164.25
