ITEM: TIMESTEP
66150
ITEM: NUMBER OF ATOMS
15
ITEM: BOX BOUNDS pp pp pp
0 240
0 240
0 240
ITEM: ATOMS id type x y z
170208 1 141.75 141.75 78.75
171163 1 126.75 177.75 78.75
200756 1 105.75 87.75 93.75
207157 1 108.75 87.75 96.75
207554 1 99.75 102.75 96.75
207633 1 96.75 105.75 96.75
251408 1 141.75 66.75 117.75
259403 1 126.75 126.75 120.75
259483 1 126.75 129.75 120.75
263890 1 147.75 54.75 123.75
675727 1 140.25 140.25 77.25
675728 1 143.25 140.25 77.25
699480 1 119.25 71.25 89.25
769896 1 167.25 71.25 122.25
771402 1 125.25 128.25 122.25
