ITEM: TIMESTEP
69000
ITEM: NUMBER OF ATOMS
19
ITEM: BOX BOUNDS pp pp pp
0 240
0 240
0 240
ITEM: ATOMS id type x y z c_myKE c_myPE
693881 1 123.221 99.0977 83.3703 0.121592 -6.98281
700280 1 119.711 99.1692 86.2906 0.0313454 -6.36542
763961 1 121.325 88.3183 120.363 0.215345 -6.84645
840419 1 49.8709 75.1976 158.378 0.1154 -6.05826
853148 1 81.7599 70.5371 165.013 0.0979297 -6.61749
347625 1 68.992 72.3666 168.84 0.0254241 -6.7907
918105 1 72.9089 107.255 194.978 0.135815 -6.16255
174911 1 88.0427 77.2973 78.391 0.0487585 -6.20255
187963 1 128 86.899 86.8992 0.267039 -6.19944
252914 1 99.5618 124.854 118.756 0.105992 -6.17114
264738 1 46.2717 84.7781 123.099 0.139992 -6.61521
297326 1 137.578 109.119 140.916 0.00331252 -6.17322
308522 1 124.882 42.8697 147.336 0.0282487 -6.15344
334899 1 52.9037 75.426 161.328 0.0788487 -6.49891
347628 1 80.2894 72.2842 166.423 0.0855852 -6.89292
872423 1 70.5511 75.5507 170.731 0.34465 -6.89856
360253 1 32.4021 67.7612 172.821 0.261944 -6.45422
391782 1 61.286 46.203 186.646 0.312149 -6.30148
386758 1 112.161 102.611 185.306 0.107021 -6.22722
