ITEM: TIMESTEP
67251
ITEM: NUMBER OF ATOMS
23
ITEM: BOX BOUNDS pp pp pp
0 240
0 240
0 240
ITEM: ATOMS id type x y z
201966 1 135.75 132.75 93.75
213970 1 147.75 102.75 99.75
214049 1 144.75 105.75 99.75
220450 1 147.75 105.75 102.75
220528 1 141.75 108.75 102.75
220529 1 144.75 108.75 102.75
251638 1 111.75 75.75 117.75
259025 1 192.75 111.75 120.75
265426 1 195.75 111.75 123.75
303476 1 105.75 99.75 141.75
303557 1 108.75 102.75 141.75
304051 1 150.75 120.75 141.75
309877 1 108.75 99.75 144.75
681709 1 86.25 125.25 80.25
701559 1 116.25 149.25 89.25
713965 1 134.25 134.25 95.25
714129 1 146.25 140.25 95.25
732369 1 146.25 104.25 104.25
732448 1 143.25 107.25 104.25
732449 1 146.25 107.25 104.25
750603 1 128.25 68.25 113.25
777732 1 155.25 125.25 125.25
796199 1 116.25 98.25 134.25
