ITEM: TIMESTEP
65000
ITEM: NUMBER OF ATOMS
19
ITEM: BOX BOUNDS pp pp pp
0 240
0 240
0 240
ITEM: ATOMS id type x y z
208356 1 105.75 132.75 96.75
208357 1 108.75 132.75 96.75
214597 1 108.75 126.75 99.75
233238 1 111.75 105.75 108.75
239473 1 96.75 99.75 111.75
239638 1 111.75 105.75 111.75
245959 1 114.75 102.75 114.75
265149 1 84.75 102.75 123.75
707637 1 110.25 137.25 92.25
714200 1 119.25 143.25 95.25
720521 1 122.25 140.25 98.25
725631 1 92.25 92.25 101.25
732835 1 104.25 122.25 104.25
744990 1 89.25 98.25 110.25
745074 1 101.25 101.25 110.25
751149 1 86.25 89.25 113.25
751229 1 86.25 92.25 113.25
770673 1 98.25 101.25 122.25
789872 1 95.25 101.25 131.25
