ITEM: TIMESTEP
71000
ITEM: NUMBER OF ATOMS
24
ITEM: BOX BOUNDS pp pp pp
0 240
0 240
0 240
ITEM: ATOMS id type x y z
103824 1 189.75 51.75 48.75
103985 1 192.75 57.75 48.75
213646 1 135.75 90.75 99.75
213797 1 108.75 96.75 99.75
214044 1 129.75 105.75 99.75
226678 1 111.75 99.75 105.75
226679 1 114.75 99.75 105.75
239565 1 132.75 102.75 111.75
615743 1 188.25 50.25 50.25
635178 1 173.25 59.25 59.25
667891 1 152.25 86.25 74.25
667892 1 155.25 86.25 74.25
719395 1 104.25 98.25 98.25
725795 1 104.25 98.25 101.25
725884 1 131.25 101.25 101.25
732521 1 122.25 110.25 104.25
738842 1 125.25 107.25 107.25
744922 1 125.25 95.25 110.25
745081 1 122.25 101.25 110.25
745323 1 128.25 110.25 110.25
751325 1 134.25 95.25 113.25
751563 1 128.25 104.25 113.25
757719 1 116.25 95.25 116.25
776681 1 122.25 86.25 125.25
