ITEM: TIMESTEP
68000
ITEM: NUMBER OF ATOMS
25
ITEM: BOX BOUNDS pp pp pp
0 240
0 240
0 240
ITEM: ATOMS id type x y z
195387 1 78.75 126.75 90.75
214202 1 123.75 111.75 99.75
214203 1 126.75 111.75 99.75
226664 1 69.75 99.75 105.75
342114 1 99.75 108.75 159.75
348594 1 99.75 111.75 162.75
354430 1 87.75 90.75 165.75
360910 1 87.75 93.75 168.75
368268 1 81.75 129.75 171.75
379878 1 111.75 84.75 177.75
392992 1 93.75 96.75 183.75
393073 1 96.75 99.75 183.75
732185 1 74.25 98.25 104.25
732264 1 71.25 101.25 104.25
733245 1 134.25 137.25 104.25
745482 1 125.25 116.25 110.25
751883 1 128.25 116.25 113.25
828672 1 95.25 116.25 149.25
835073 1 98.25 116.25 152.25
835152 1 95.25 119.25 152.25
841472 1 95.25 116.25 155.25
867466 1 77.25 131.25 167.25
898511 1 92.25 95.25 182.25
898749 1 86.25 104.25 182.25
905229 1 86.25 107.25 185.25
