ITEM: TIMESTEP
66000
ITEM: NUMBER OF ATOMS
16
ITEM: BOX BOUNDS pp pp pp
0 240
0 240
0 240
ITEM: ATOMS id type x y z
258596 1 105.75 96.75 120.75
259081 1 120.75 114.75 120.75
265394 1 99.75 111.75 123.75
271155 1 102.75 87.75 126.75
271397 1 108.75 96.75 126.75
277795 1 102.75 96.75 129.75
284359 1 114.75 102.75 132.75
308913 1 96.75 63.75 144.75
719393 1 98.25 98.25 98.25
764759 1 116.25 119.25 119.25
770357 1 110.25 89.25 122.25
776835 1 104.25 92.25 125.25
776915 1 104.25 95.25 125.25
776995 1 104.25 98.25 125.25
789955 1 104.25 104.25 131.25
796117 1 110.25 95.25 134.25
