ITEM: TIMESTEP
67000
ITEM: NUMBER OF ATOMS
15
ITEM: BOX BOUNDS pp pp pp
0 240
0 240
0 240
ITEM: ATOMS id type x y z
207551 1 90.75 102.75 96.75
214030 1 87.75 105.75 99.75
226751 1 90.75 102.75 105.75
233151 1 90.75 102.75 108.75
283798 1 111.75 81.75 132.75
302916 1 105.75 78.75 141.75
751473 1 98.25 101.25 113.25
764678 1 113.25 116.25 119.25
770753 1 98.25 104.25 122.25
771236 1 107.25 122.25 122.25
777471 1 92.25 116.25 125.25
783789 1 86.25 113.25 128.25
783790 1 89.25 113.25 128.25
790352 1 95.25 119.25 131.25
796513 1 98.25 110.25 134.25
