ITEM: TIMESTEP
66247
ITEM: NUMBER OF ATOMS
20
ITEM: BOX BOUNDS pp pp pp
0 240
0 240
0 240
ITEM: ATOMS id type x y z
176278 1 111.75 129.75 81.75
182519 1 114.75 123.75 84.75
182598 1 111.75 126.75 84.75
182599 1 114.75 126.75 84.75
188998 1 111.75 126.75 87.75
194680 1 117.75 99.75 90.75
207393 1 96.75 96.75 96.75
214204 1 129.75 111.75 99.75
233402 1 123.75 111.75 108.75
239799 1 114.75 111.75 111.75
656276 1 107.25 131.25 68.25
675555 1 104.25 134.25 77.25
681479 1 116.25 116.25 80.25
694436 1 107.25 122.25 86.25
694676 1 107.25 131.25 86.25
694916 1 107.25 140.25 86.25
701236 1 107.25 137.25 89.25
707162 1 125.25 119.25 92.25
707554 1 101.25 134.25 92.25
732515 1 104.25 110.25 104.25
