ITEM: TIMESTEP
70000
ITEM: NUMBER OF ATOMS
24
ITEM: BOX BOUNDS pp pp pp
0 240
0 240
0 240
ITEM: ATOMS id type x y z c_myKE c_myPE
726765 1 136.384 135.855 99.4465 0.101853 -6.17113
739312 1 95.0763 126.455 107.335 0.162535 -7.06771
234274 1 97.7061 143.765 107.591 0.0369635 -6.66497
246915 1 99.262 139.195 111.901 0.566323 -6.88265
298846 1 135.946 169.125 142.355 0.226856 -7.11278
817246 1 137.18 171.314 143.516 0.117528 -7.47082
816213 1 159.755 129.661 145.512 0.161185 -7.2021
854936 1 172.293 143.843 166.593 0.225506 -6.80839
194670 1 84.6903 99.4323 88.1007 0.335141 -5.79861
194929 1 145.443 107.199 87.7206 0.485542 -5.32737
215333 1 160.124 156.981 99.4806 0.25296 -6.5624
227392 1 93.2634 126.34 105.496 0.16739 -6.77355
770279 1 113.505 83.5822 121.824 0.15794 -6.66759
272281 1 119.912 129.346 128.56 0.121777 -6.29883
278600 1 116.473 127.869 130.933 0.198237 -6.39671
298925 1 132.868 171.009 138.881 0.242305 -6.97961
810846 1 134.65 172.705 139.44 0.183336 -7.33307
810844 1 132.832 172.32 141.167 0.01642 -7.34277
305325 1 132.573 173.093 143.802 0.00916912 -7.60211
317092 1 156.855 129.219 148.714 0.142409 -6.22591
349496 1 167.828 145.383 160.713 0.209618 -7.13122
343096 1 169.513 147.337 161.355 0.0743273 -7.43905
861416 1 167.794 144.192 164.678 0.0361858 -7.58151
349417 1 170.497 143.892 164.825 0.05563 -7.23429
