ITEM: TIMESTEP
69182
ITEM: NUMBER OF ATOMS
18
ITEM: BOX BOUNDS pp pp pp
0 240
0 240
0 240
ITEM: ATOMS id type x y z c_myKE c_myPE
661109 1 212.689 69.1203 69.1168 0 -6.25448
680691 1 153.338 83.1352 76.7539 0 -6.82131
680772 1 156.593 86.3907 76.6291 0 -6.5471
687870 1 86.6556 111.644 80.2609 0 -7.06926
687790 1 88.4771 113.466 80.2611 0 -7.06865
694190 1 86.6556 113.466 82.0821 0 -7.06751
718298 1 177.605 53.1663 97.8247 0 -6.25442
758372 1 158.462 121.404 115.019 0 -6.25545
758529 1 146.943 124.593 116.973 0 -6.25179
764601 1 123.413 111.653 120.181 0 -7.04045
783650 1 152.085 105.45 127.783 0 -6.25397
802678 1 111.867 99.0731 137.355 0 -6.25436
220836 1 103.883 121.759 102.621 0 -6.25365
231893 1 158.114 51.5739 108.989 0 -6.25465
252601 1 121.633 110.213 118.321 0 -6.69642
258921 1 121.868 107.09 121.732 0 -6.86548
290993 1 96.2622 110.241 137.708 0 -6.25459
310845 1 131.348 137.705 145.332 0 -6.25463
