ITEM: TIMESTEP
66229
ITEM: NUMBER OF ATOMS
17
ITEM: BOX BOUNDS pp pp pp
0 240
0 240
0 240
ITEM: ATOMS id type x y z
182129 1 144.75 108.75 84.75
207393 1 96.75 96.75 96.75
207723 1 126.75 108.75 96.75
213795 1 102.75 96.75 99.75
214042 1 123.75 105.75 99.75
227085 1 132.75 114.75 105.75
232920 1 117.75 93.75 108.75
233081 1 120.75 99.75 108.75
239720 1 117.75 108.75 111.75
264757 1 108.75 87.75 123.75
668371 1 152.25 104.25 74.25
706520 1 119.25 95.25 92.25
719487 1 140.25 101.25 98.25
732362 1 125.25 104.25 104.25
751634 1 101.25 107.25 113.25
764279 1 116.25 101.25 119.25
783319 1 116.25 95.25 128.25
