ITEM: TIMESTEP
65000
ITEM: NUMBER OF ATOMS
12
ITEM: BOX BOUNDS pp pp pp
0 240
0 240
0 240
ITEM: ATOMS id type x y z c_myKE c_myPE
654054 1 164.586 41.4091 64.1608 0.17654 -6.36221
700595 1 104.257 111.694 86.4449 0.127512 -7.29002
700674 1 101.179 114.977 86.1955 0.20774 -6.98517
207312 1 91.5677 93.9159 94.8855 0.00724308 -7.08195
726993 1 97.6652 143.827 101.008 0.242506 -6.53798
771324 1 133.354 126.313 123.198 0.0220916 -6.67508
284427 1 75.4495 105.261 136.355 0.16997 -7.16026
207471 1 90.3688 96.2529 94.14 0.0768664 -6.96751
207392 1 91.4557 95.8303 96.6485 0.150386 -7.53279
220507 1 77.21 107.013 100.153 0.272271 -6.43997
789867 1 76.9314 100.299 134.659 0.0853162 -7.2995
290747 1 75.1649 102.457 135.874 0.105969 -7.47318
