ITEM: TIMESTEP
67000
ITEM: NUMBER OF ATOMS
18
ITEM: BOX BOUNDS pp pp pp
0 240
0 240
0 240
ITEM: ATOMS id type x y z c_myKE c_myPE
712748 1 79.9092 91.6697 92.698 0.114899 -6.51794
297156 1 102.301 104.496 137.361 0.155227 -6.422
821647 1 140.414 89.7267 146.7 0.0875927 -6.82373
866752 1 90.9874 104.329 169.387 0.211369 -6.69626
886199 1 115.401 111.909 181.1 0.0804756 -6.17176
213228 1 78.3464 72.2799 99.6184 0.066763 -6.18238
258509 1 83.63 91.5449 119.971 0.249504 -5.48493
259549 1 83.497 134.752 118.554 0.0304947 -6.50591
297235 1 100.575 105.884 138.737 0.0402852 -7.48481
303714 1 97.575 109.024 139.121 0.0872541 -7.7718
815712 1 94.7212 112.2 139.039 0.0621902 -7.05852
303633 1 97.5632 105.768 142.249 0.0314445 -7.26926
297313 1 94.23 108.977 142.393 0.0185588 -7.17678
828760 1 119.951 119.883 153.782 0.0731583 -6.45478
361313 1 94.6308 107.023 170.613 0.0306408 -6.04012
373395 1 102.586 80.3472 177.249 0.107438 -6.78926
380763 1 128.391 116.096 180.412 0.0434736 -6.43181
393477 1 109.228 115.642 188.85 0.450165 -6.52628
