ITEM: TIMESTEP
67165
ITEM: NUMBER OF ATOMS
23
ITEM: BOX BOUNDS pp pp pp
0 240
0 240
0 240
ITEM: ATOMS id type x y z
214273 1 96.75 114.75 99.75
226914 1 99.75 108.75 105.75
239471 1 90.75 99.75 111.75
245950 1 87.75 102.75 114.75
252114 1 99.75 93.75 117.75
258111 1 90.75 78.75 120.75
258835 1 102.75 105.75 120.75
272445 1 132.75 135.75 126.75
277874 1 99.75 99.75 129.75
277875 1 102.75 99.75 129.75
278525 1 132.75 123.75 129.75
285164 1 129.75 132.75 132.75
285165 1 132.75 132.75 132.75
291484 1 129.75 129.75 135.75
297319 1 114.75 108.75 138.75
303396 1 105.75 96.75 141.75
725546 1 77.25 89.25 101.25
764189 1 86.25 98.25 119.25
770029 1 86.25 77.25 122.25
770834 1 101.25 107.25 122.25
789954 1 101.25 104.25 131.25
789955 1 104.25 104.25 131.25
803483 1 128.25 131.25 137.25
