ITEM: TIMESTEP
66000
ITEM: NUMBER OF ATOMS
12
ITEM: BOX BOUNDS pp pp pp
0 240
0 240
0 240
ITEM: ATOMS id type x y z c_myKE c_myPE
661235 1 102.173 75.6135 67.1994 0.0900864 -6.54501
712508 1 76.7682 78.7581 94.6519 0.168093 -6.91949
718906 1 73.3171 78.8017 97.9379 0.0190173 -7.28957
744427 1 76.6392 73.6926 108.459 0.178394 -6.88648
777722 1 126.685 126.303 124.755 0.219611 -7.33793
278830 1 82.9874 135.966 131.3 0.218765 -5.90869
169237 1 108.892 103.747 75.13 0.0690508 -6.67161
245401 1 119.851 78.3658 113.5 0.330275 -6.65738
251881 1 119.722 81.183 116.764 0.379012 -6.78394
246276 1 105.96 116.745 116.583 0.0847682 -6.67437
259483 1 127.981 131.344 120.114 0.0585438 -6.79958
265884 1 131.351 131.238 123.174 0.191454 -7.11799
