ITEM: TIMESTEP
65165
ITEM: NUMBER OF ATOMS
14
ITEM: BOX BOUNDS pp pp pp
0 240
0 240
0 240
ITEM: ATOMS id type x y z c_myKE c_myPE
687000 1 118.216 79.9435 81.8866 0 -6.25401
712932 1 156.494 94.6506 94.6429 0 -6.25446
226913 1 94.6365 104.214 101.031 0 -6.25261
731869 1 86.2726 81.4089 104.275 0 -6.95704
738191 1 89.496 81.8951 108.318 0 -6.62505
757569 1 146.862 88.3288 117.034 0 -6.28516
252129 1 143.775 91.4147 118.263 0 -7.37315
764047 1 143.775 89.5571 120.12 0 -7.37097
764048 1 145.634 91.4154 120.121 0 -7.37111
784043 1 127.781 123.354 129.734 0 -6.25407
304038 1 113.779 121.411 142.492 0 -6.25322
182275 1 102.615 113.436 81.5416 0 -6.25372
214104 1 65.5753 109.002 99.4349 0 -6.25352
226350 1 84.4172 83.2298 104.066 0 -7.29717
