ITEM: TIMESTEP
67000
ITEM: NUMBER OF ATOMS
21
ITEM: BOX BOUNDS pp pp pp
0 240
0 240
0 240
ITEM: ATOMS id type x y z
182511 1 90.75 123.75 84.75
195310 1 87.75 123.75 90.75
195312 1 93.75 123.75 90.75
195556 1 105.75 132.75 90.75
201550 1 87.75 117.75 93.75
208191 1 90.75 126.75 96.75
214593 1 96.75 126.75 99.75
220676 1 105.75 114.75 102.75
220916 1 105.75 123.75 102.75
221152 1 93.75 132.75 102.75
227714 1 99.75 138.75 105.75
291077 1 108.75 114.75 135.75
688352 1 95.25 134.25 83.25
713630 1 89.25 122.25 95.25
713714 1 101.25 125.25 95.25
719948 1 83.25 119.25 98.25
720189 1 86.25 128.25 98.25
726754 1 101.25 134.25 101.25
726993 1 98.25 143.25 101.25
733234 1 101.25 137.25 104.25
745873 1 98.25 131.25 110.25
