ITEM: TIMESTEP
67000
ITEM: NUMBER OF ATOMS
13
ITEM: BOX BOUNDS pp pp pp
0 240
0 240
0 240
ITEM: ATOMS id type x y z c_myKE c_myPE
694590 1 85.932 129.714 83.0995 0.190568 -7.25111
725882 1 126.644 99.0844 98.8436 0.0924835 -7.03791
756905 1 70.5171 63.2638 116.711 0.0505351 -5.86196
770504 1 67.0053 92.5961 121.451 0.244295 -6.53754
776662 1 60.4706 85.1488 124.439 0.15784 -7.02394
777465 1 72.579 115.146 127.843 0.102291 -6.36635
808194 1 98.8334 63.9302 142.522 0.524973 -7.38075
809480 1 118.611 115.161 142.525 0.343187 -6.11693
853540 1 56.205 86.4104 164.703 0.282855 0
188990 1 84.8774 128.197 85.027 0.105058 -6.4719
213804 1 131.272 94.3158 97.7036 0.187482 -6.84409
271062 1 59.1794 83.3386 126.165 0.176081 -6.93472
296274 1 97.5734 65.741 140.722 0.0851688 -6.63374
