ITEM: TIMESTEP
70000
ITEM: NUMBER OF ATOMS
30
ITEM: BOX BOUNDS pp pp pp
0 240
0 240
0 240
ITEM: ATOMS id type x y z
214354 1 99.75 117.75 99.75
220436 1 105.75 105.75 102.75
226752 1 93.75 102.75 105.75
226993 1 96.75 111.75 105.75
239714 1 99.75 108.75 111.75
246270 1 87.75 114.75 114.75
246355 1 102.75 117.75 114.75
246356 1 105.75 117.75 114.75
252833 1 96.75 120.75 117.75
265476 1 105.75 114.75 123.75
265716 1 105.75 123.75 123.75
311153 1 96.75 147.75 144.75
311232 1 93.75 150.75 144.75
324193 1 96.75 156.75 150.75
330675 1 102.75 159.75 153.75
368594 1 99.75 141.75 171.75
726115 1 104.25 110.25 101.25
745394 1 101.25 113.25 110.25
745472 1 95.25 116.25 110.25
758033 1 98.25 107.25 116.25
758113 1 98.25 110.25 116.25
758195 1 104.25 113.25 116.25
764595 1 104.25 113.25 119.25
764755 1 104.25 119.25 119.25
764756 1 107.25 119.25 119.25
777551 1 92.25 119.25 125.25
829874 1 101.25 161.25 149.25
836114 1 101.25 155.25 152.25
836115 1 104.25 155.25 152.25
842274 1 101.25 146.25 155.25
