ITEM: TIMESTEP
71000
ITEM: NUMBER OF ATOMS
22
ITEM: BOX BOUNDS pp pp pp
0 240
0 240
0 240
ITEM: ATOMS id type x y z
48693 1 156.75 144.75 21.75
55089 1 144.75 144.75 24.75
68769 1 144.75 177.75 30.75
68848 1 141.75 180.75 30.75
81085 1 132.75 159.75 36.75
118376 1 165.75 117.75 54.75
156681 1 120.75 114.75 72.75
176445 1 132.75 135.75 81.75
208032 1 93.75 120.75 96.75
219953 1 96.75 87.75 102.75
259720 1 117.75 138.75 120.75
574447 1 140.25 182.25 29.25
611733 1 158.25 140.25 47.25
611812 1 155.25 143.25 47.25
611891 1 152.25 146.25 47.25
637245 1 134.25 137.25 59.25
637326 1 137.25 140.25 59.25
643553 1 98.25 134.25 62.25
694843 1 128.25 137.25 86.25
707482 1 125.25 131.25 92.25
782129 1 146.25 50.25 128.25
835001 1 122.25 113.25 152.25
