ITEM: TIMESTEP
66243
ITEM: NUMBER OF ATOMS
19
ITEM: BOX BOUNDS pp pp pp
0 240
0 240
0 240
ITEM: ATOMS id type x y z
180687 1 138.75 54.75 84.75
258768 1 141.75 102.75 120.75
265169 1 144.75 102.75 123.75
265248 1 141.75 105.75 123.75
265474 1 99.75 114.75 123.75
265552 1 93.75 117.75 123.75
271875 1 102.75 114.75 126.75
272032 1 93.75 120.75 126.75
278195 1 102.75 111.75 129.75
285157 1 108.75 132.75 132.75
285238 1 111.75 135.75 132.75
291637 1 108.75 135.75 135.75
337569 1 144.75 177.75 156.75
720590 1 89.25 143.25 98.25
726910 1 89.25 140.25 101.25
757713 1 98.25 95.25 116.25
771152 1 95.25 119.25 122.25
777632 1 95.25 122.25 125.25
777711 1 92.25 125.25 125.25
