ITEM: TIMESTEP
66233
ITEM: NUMBER OF ATOMS
10
ITEM: BOX BOUNDS pp pp pp
0 240
0 240
0 240
ITEM: ATOMS id type x y z c_myKE c_myPE
227238 1 110.601 120.158 107.409 0 -6.25409
770353 1 105.584 88.3427 116.87 0 -7.04107
765002 1 124.615 129.748 118.235 0 -6.26123
258269 1 85.0684 81.8753 121.41 0 -6.25702
815471 1 89.5004 102.263 143.752 0 -6.25702
182278 1 110.25 113.441 81.551 0 -6.82294
195158 1 110.132 116.698 84.8072 0 -6.54347
194586 1 73.9085 96.2295 86.6738 0 -6.25556
770194 1 103.824 86.5989 118.365 0 -6.75733
763957 1 107.121 86.5576 118.734 0 -6.93196
