ITEM: TIMESTEP
66000
ITEM: NUMBER OF ATOMS
15
ITEM: BOX BOUNDS pp pp pp
0 240
0 240
0 240
ITEM: ATOMS id type x y z
188202 1 123.75 96.75 87.75
188281 1 120.75 99.75 87.75
194525 1 132.75 93.75 90.75
194602 1 123.75 96.75 90.75
207165 1 132.75 87.75 96.75
232051 1 150.75 60.75 108.75
668127 1 140.25 95.25 74.25
687321 1 122.25 95.25 83.25
693643 1 128.25 92.25 86.25
693722 1 125.25 95.25 86.25
693723 1 128.25 95.25 86.25
693801 1 122.25 98.25 86.25
700122 1 125.25 95.25 89.25
700123 1 128.25 95.25 89.25
835398 1 113.25 128.25 152.25
