ITEM: TIMESTEP
68187
ITEM: NUMBER OF ATOMS
20
ITEM: BOX BOUNDS pp pp pp
0 240
0 240
0 240
ITEM: ATOMS id type x y z
144844 1 129.75 150.75 66.75
157879 1 114.75 159.75 72.75
164115 1 102.75 153.75 75.75
164199 1 114.75 156.75 75.75
170594 1 99.75 156.75 78.75
177072 1 93.75 159.75 81.75
183238 1 111.75 150.75 84.75
183474 1 99.75 159.75 84.75
189475 1 102.75 144.75 87.75
213873 1 96.75 99.75 99.75
214196 1 105.75 111.75 99.75
214276 1 105.75 114.75 99.75
214600 1 117.75 126.75 99.75
220914 1 99.75 123.75 102.75
631313 1 98.25 155.25 56.25
656833 1 98.25 152.25 68.25
663318 1 113.25 155.25 71.25
714751 1 92.25 164.25 95.25
719794 1 101.25 113.25 98.25
745871 1 92.25 131.25 110.25
