ITEM: TIMESTEP
66000
ITEM: NUMBER OF ATOMS
24
ITEM: BOX BOUNDS pp pp pp
0 240
0 240
0 240
ITEM: ATOMS id type x y z c_myKE c_myPE
700597 1 108.699 113.987 86.5835 0.37035 -6.93244
265325 1 133.618 108.961 121.851 0.149647 -7.70601
259006 1 137.447 108.761 120.034 0.0260013 -6.90649
277240 1 119.881 70.3274 131.02 0.151832 -7.63775
277160 1 118.042 72.1808 131.018 0.0334512 -7.38219
283559 1 117.026 69.0765 134.116 0.211535 -6.11266
289961 1 119.965 72.3833 132.764 0.335549 -7.65236
194355 1 102.47 84.8924 88.1139 0.0783556 -6.19588
194435 1 99.484 88.1209 88.006 0.0440451 -6.50116
194997 1 107.15 112.34 88.0761 0.248238 -6.21259
214827 1 76.8445 137.68 97.697 0.0813748 -6.34528
227061 1 56.2389 115.023 103.778 0.0355602 -5.30226
758037 1 122.61 109.139 119.763 0.227746 -6.30124
265326 1 135.531 109.146 123.591 0.111757 -6.47454
266206 1 137.586 143.962 124.748 0.170516 -5.93992
277721 1 121.919 93.3691 128.028 0.229396 -6.59306
277081 1 122.934 67.7656 132.641 0.0731137 -7.09698
278504 1 65.4202 124.882 131.318 0.180437 -6.17973
278583 1 62.5917 128.097 131.656 0.229727 -6.45824
809150 1 87.7665 103.833 138.788 0.0864409 -5.70207
316202 1 124.801 94.4887 148.584 0.307307 -7.18565
309881 1 121.961 97.7232 147.238 0.277935 -6.4779
316122 1 123.075 94.6036 150.428 0.0315634 -7.00168
828201 1 124.988 96.3391 150.477 0.0353572 -7.52095
