ITEM: TIMESTEP
66182
ITEM: NUMBER OF ATOMS
25
ITEM: BOX BOUNDS pp pp pp
0 240
0 240
0 240
ITEM: ATOMS id type x y z
207152 1 93.75 87.75 96.75
239390 1 87.75 96.75 111.75
252116 1 105.75 93.75 117.75
265310 1 87.75 108.75 123.75
271230 1 87.75 90.75 126.75
271310 1 87.75 93.75 126.75
277867 1 78.75 99.75 129.75
278109 1 84.75 108.75 129.75
297241 1 120.75 105.75 138.75
316202 1 123.75 96.75 147.75
719232 1 95.25 92.25 98.25
738432 1 95.25 92.25 107.25
751233 1 98.25 92.25 113.25
751555 1 104.25 104.25 113.25
757713 1 98.25 95.25 116.25
763871 1 92.25 86.25 119.25
770429 1 86.25 92.25 122.25
770430 1 89.25 92.25 122.25
770671 1 92.25 101.25 122.25
770925 1 134.25 110.25 122.25
777070 1 89.25 101.25 125.25
777316 1 107.25 110.25 125.25
783708 1 83.25 110.25 128.25
789160 1 119.25 74.25 131.25
790121 1 122.25 110.25 131.25
