ITEM: TIMESTEP
67000
ITEM: NUMBER OF ATOMS
22
ITEM: BOX BOUNDS pp pp pp
0 240
0 240
0 240
ITEM: ATOMS id type x y z c_myKE c_myPE
737709 1 85.0646 60.6689 105.514 0.0405634 -6.94037
246690 1 150.13 131.227 112.009 0.0679743 -5.13452
764125 1 134.105 92.8679 118.244 0.0582291 -7.02795
265150 1 88.5438 97.8184 126.585 0.187583 -6.38002
271390 1 91.1879 97.9722 126.338 0.25965 -7.00031
783553 1 91.0978 99.1961 130.093 0.301063 -7.24171
789871 1 88.0906 102.273 130.836 0.292826 -6.44296
790053 1 161.669 107.85 129.742 0.122377 -6.39691
783709 1 85.8464 110.715 129.604 0.223006 -6.64173
783868 1 79.9123 114.718 129.882 0.072705 -7.14707
814976 1 41.4672 82.2763 143.69 0.227275 -7.23137
815056 1 41.9123 85.1166 143.92 0.335289 -7.3617
821457 1 44.6088 85.3804 147.109 0.0615851 -6.99583
225631 1 89.8591 56.0208 103.98 0.0904314 -6.68769
232623 1 188.992 80.0319 107.117 0.10035 -5.99312
240025 1 68.6267 119.919 110.162 0.135847 -6.06856
789791 1 93.4576 97.6458 132.968 0.437445 -7.58725
284272 1 89.6869 100.675 132.232 0.00173702 -7.08636
284667 1 75.4623 113.248 134.593 0.119425 -6.43176
801705 1 73.9936 61.3386 138.777 0.0561376 -6.33083
296268 1 78.3651 65.663 138.8 0.042641 -6.08756
309169 1 147.343 70.9788 147.225 0.0494384 -6.47617
