ITEM: TIMESTEP
71000
ITEM: NUMBER OF ATOMS
31
ITEM: BOX BOUNDS pp pp pp
0 240
0 240
0 240
ITEM: ATOMS id type x y z
207393 1 96.75 96.75 96.75
213711 1 90.75 93.75 99.75
226276 1 105.75 84.75 105.75
226591 1 90.75 96.75 105.75
239475 1 102.75 99.75 111.75
342122 1 123.75 108.75 159.75
342597 1 108.75 126.75 159.75
342680 1 117.75 129.75 159.75
348522 1 123.75 108.75 162.75
361800 1 117.75 126.75 168.75
419328 1 141.75 123.75 195.75
419808 1 141.75 141.75 195.75
438605 1 132.75 126.75 204.75
445088 1 141.75 129.75 207.75
445406 1 135.75 141.75 207.75
445486 1 135.75 144.75 207.75
451486 1 135.75 129.75 210.75
451646 1 135.75 135.75 210.75
503089 1 144.75 144.75 234.75
783476 1 107.25 101.25 128.25
796196 1 107.25 98.25 134.25
796516 1 107.25 110.25 134.25
802357 1 110.25 89.25 137.25
802756 1 107.25 104.25 137.25
835005 1 134.25 113.25 152.25
835317 1 110.25 125.25 152.25
835318 1 113.25 125.25 152.25
841637 1 110.25 122.25 155.25
841718 1 113.25 125.25 155.25
892924 1 131.25 125.25 179.25
918684 1 131.25 131.25 191.25
