ITEM: TIMESTEP
70000
ITEM: NUMBER OF ATOMS
29
ITEM: BOX BOUNDS pp pp pp
0 240
0 240
0 240
ITEM: ATOMS id type x y z c_myKE c_myPE
662435 1 104.113 123.361 67.2567 0.179776 -6.4296
662516 1 107.536 126.623 67.4991 0.124635 -6.65758
683491 1 155.234 196.718 78.5404 0.127581 -5.99219
696617 1 172.395 209.427 83.0698 0.146951 -6.47265
705956 1 107.317 70.658 89.6575 0.184394 -6.64165
706035 1 104.356 73.8415 89.5037 0.0752267 -6.39172
706998 1 111.934 113.633 89.5729 0.182245 -6.06074
727231 1 91.34 151.928 99.1156 0.046779 -6.46718
732998 1 113.851 127.959 104.11 0.0854077 -7.30772
733746 1 203.645 156.609 104.385 0.0879738 -6.96731
740699 1 179.004 178.798 105.322 0.117429 -6.58294
739318 1 113.715 124.497 107.248 0.203134 -7.73518
740066 1 203.373 153.296 107.476 0.054511 -7.6881
745638 1 113.769 121.587 110.68 0.144509 -6.72696
745800 1 120.114 127.856 110.736 0.291094 -6.70951
759009 1 148.742 145.683 116.922 0.176735 -6.86844
209329 1 145.562 172.357 93.8748 0.14168 -6.79418
209249 1 145.609 170.56 95.7501 0.0949329 -7.15045
721249 1 147.171 172.753 96.0214 0.128796 -7.53695
221416 1 171.141 140.889 100.858 0.0719615 -5.92902
215809 1 147.09 175.921 99.2642 0.130711 -6.90141
216615 1 164.243 204.568 99.3889 0.201221 -6.82122
725641 1 122.904 90.9127 102.656 0.0616562 -7.07938
227154 1 99.327 116.557 105.42 0.403165 -6.35411
227320 1 118.714 123.369 105.699 0.0596578 -7.83718
228066 1 201.449 151.886 105.72 0.0447566 -7.48892
228145 1 198.52 154.787 105.736 0.0747883 -6.94948
233800 1 118.456 126.2 108.702 0.0327624 -7.39181
234546 1 201.515 154.616 109.011 0.223137 -7.19604
