ITEM: TIMESTEP
66173
ITEM: NUMBER OF ATOMS
18
ITEM: BOX BOUNDS pp pp pp
0 240
0 240
0 240
ITEM: ATOMS id type x y z
149882 1 123.75 99.75 69.75
149963 1 126.75 102.75 69.75
181721 1 120.75 93.75 84.75
213560 1 117.75 87.75 99.75
214838 1 111.75 135.75 99.75
219961 1 120.75 87.75 102.75
220040 1 117.75 90.75 102.75
226279 1 114.75 84.75 105.75
232761 1 120.75 87.75 108.75
693721 1 122.25 95.25 86.25
731800 1 119.25 83.25 104.25
731881 1 122.25 86.25 104.25
732039 1 116.25 92.25 104.25
738352 1 95.25 89.25 107.25
759641 1 122.25 167.25 116.25
776594 1 101.25 83.25 125.25
802531 1 152.25 95.25 137.25
808932 1 155.25 95.25 140.25
