ITEM: TIMESTEP
67238
ITEM: NUMBER OF ATOMS
9
ITEM: BOX BOUNDS pp pp pp
0 240
0 240
0 240
ITEM: ATOMS id type x y z c_myKE c_myPE
706997 1 110.276 113.477 92.5129 0 -7.06969
713397 1 110.274 111.655 94.3327 0 -7.06679
214276 1 107.77 114.896 95.7551 0 -6.78078
720917 1 108.644 158.449 95.8974 0 -6.25436
770017 1 44.8501 72.3221 123.359 0 -6.25443
271633 1 97.8295 101.037 126.548 0 -6.259
764198 1 108.916 96.172 121.879 0 -6.54919
258759 1 113.509 100.763 122.894 0 -6.54892
315624 1 68.7751 71.9779 148.526 0 -6.25506
