ITEM: TIMESTEP
66158
ITEM: NUMBER OF ATOMS
20
ITEM: BOX BOUNDS pp pp pp
0 240
0 240
0 240
ITEM: ATOMS id type x y z
207557 1 108.75 102.75 96.75
232756 1 105.75 87.75 108.75
239077 1 108.75 84.75 111.75
239238 1 111.75 90.75 111.75
258514 1 99.75 93.75 120.75
271394 1 99.75 96.75 126.75
271551 1 90.75 102.75 126.75
278114 1 99.75 108.75 129.75
278195 1 102.75 111.75 129.75
297154 1 99.75 102.75 138.75
316193 1 96.75 96.75 147.75
322434 1 99.75 90.75 150.75
764679 1 116.25 116.25 119.25
764838 1 113.25 122.25 119.25
777152 1 95.25 104.25 125.25
789395 1 104.25 83.25 131.25
821873 1 98.25 101.25 146.25
828113 1 98.25 95.25 149.25
840755 1 104.25 89.25 155.25
847392 1 95.25 98.25 158.25
