ITEM: TIMESTEP
67173
ITEM: NUMBER OF ATOMS
11
ITEM: BOX BOUNDS pp pp pp
0 240
0 240
0 240
ITEM: ATOMS id type x y z c_myKE c_myPE
668119 1 116.997 94.6419 72.301 0 -6.25415
712916 1 107.389 94.6361 92.7104 0 -6.83205
719236 1 107.535 91.3798 95.9602 0 -6.56976
731164 1 132.93 54.4157 102.271 0 -6.2547
757889 1 149.987 98.1981 110.73 0 -6.77921
745010 1 146.743 100.702 112.149 0 -7.06472
239649 1 148.565 100.703 113.973 0 -7.06948
809168 1 145.69 104.211 142.492 0 -6.25288
188845 1 132.595 119.816 84.7206 0 -6.25177
207144 1 65.5987 84.7198 96.2441 0 -6.2549
278123 1 128.139 107.046 137.708 0 -6.25343
