ITEM: TIMESTEP
65174
ITEM: NUMBER OF ATOMS
12
ITEM: BOX BOUNDS pp pp pp
0 240
0 240
0 240
ITEM: ATOMS id type x y z c_myKE c_myPE
713957 1 110.463 137.468 94.7783 0 -6.6624
733319 1 116.739 142.225 104.97 0 -7.24615
245952 1 91.4491 99.0836 110.6 0 -6.25359
802356 1 107.397 88.271 139.305 0 -6.25417
169719 1 113.507 125.074 77.0284 0 -6.54898
176118 1 110.247 124.951 80.2823 0 -6.82566
208280 1 116.727 131.218 94.1633 0 -6.64346
202038 1 112.173 135.769 93.3392 0 -7.30576
220818 1 46.4506 121.756 102.622 0 -6.24867
221399 1 116.645 142.142 102.34 0 -7.34989
234039 1 115.851 137.751 106.626 0 -7.6311
739798 1 114.333 141.834 105.964 0 -7.27122
