ITEM: TIMESTEP
70000
ITEM: NUMBER OF ATOMS
25
ITEM: BOX BOUNDS pp pp pp
0 240
0 240
0 240
ITEM: ATOMS id type x y z c_myKE c_myPE
725957 1 110.362 102.461 100.988 0.3929 -7.05836
270992 1 91.2683 78.6254 123.358 0.134641 -6.83835
264753 1 96.0849 82.8284 123.366 0.121213 -6.26177
827772 1 29.0667 79.9202 151.733 0.061257 -6.75002
834092 1 29.0188 76.9423 155.091 0.104499 -6.35049
836347 1 76.567 168.075 155.227 0.00817816 -6.94148
879785 1 68.9671 110.969 181.539 0.00391596 -7.1255
898584 1 69.075 95.8455 185.313 0.0688963 -7.53015
904983 1 65.7015 95.7187 188.434 0.118866 -6.94523
207636 1 105.843 103.572 96.2527 0.0192183 -6.30226
232757 1 107.066 86.7327 107.227 0.107379 -6.28741
252830 1 86.4849 121.691 116.704 0.0944194 -6.91919
259150 1 86.6846 118.54 119.8 0.359738 -6.64787
264592 1 90.5901 81.9353 128.124 0.00750803 -6.11628
271072 1 92.502 83.6538 128.146 0.0540243 -6.629
297318 1 111.963 109.056 139.023 0.0670798 -6.44593
335855 1 33.7445 116.829 161.468 0.148497 -6.51182
341774 1 33.8883 96.1839 163.02 0.451461 -6.67534
342334 1 32.3762 118.459 163.151 0.197577 -6.63261
348254 1 33.8788 99.3139 166.424 0.284345 -7.33474
367865 1 70.7086 112.068 176.494 0.153239 -6.87446
374425 1 70.4755 116.157 177.569 0.162085 -7.56657
386985 1 70.7692 114.117 179.337 0.0422958 -7.5998
386744 1 67.2996 100.593 183.522 0.0694494 -7.30671
393143 1 64.347 100.534 186.891 0.111579 -6.90076
