ITEM: TIMESTEP
66716
ITEM: NUMBER OF ATOMS
16
ITEM: BOX BOUNDS pp pp pp
0 240
0 240
0 240
ITEM: ATOMS id type x y z
233234 1 99.75 105.75 108.75
239790 1 87.75 111.75 111.75
239795 1 102.75 111.75 111.75
246272 1 93.75 114.75 114.75
264922 1 123.75 93.75 123.75
265394 1 99.75 111.75 123.75
271398 1 111.75 96.75 126.75
290680 1 117.75 99.75 135.75
732353 1 98.25 104.25 104.25
745155 1 104.25 104.25 110.25
751873 1 98.25 116.25 113.25
757955 1 104.25 104.25 116.25
757956 1 107.25 104.25 116.25
757961 1 122.25 104.25 116.25
758032 1 95.25 107.25 116.25
783479 1 116.25 101.25 128.25
