ITEM: TIMESTEP
67186
ITEM: NUMBER OF ATOMS
18
ITEM: BOX BOUNDS pp pp pp
0 240
0 240
0 240
ITEM: ATOMS id type x y z
220909 1 84.75 123.75 102.75
240193 1 96.75 126.75 111.75
297002 1 123.75 96.75 138.75
303402 1 123.75 96.75 141.75
317244 1 129.75 135.75 147.75
347957 1 108.75 87.75 162.75
368038 1 111.75 120.75 171.75
380356 1 105.75 102.75 177.75
380673 1 96.75 114.75 177.75
808922 1 125.25 95.25 140.25
815952 1 95.25 119.25 143.25
821221 1 62.25 77.25 146.25
822353 1 98.25 119.25 146.25
822513 1 98.25 125.25 146.25
828912 1 95.25 125.25 149.25
859877 1 110.25 86.25 164.25
866357 1 110.25 89.25 167.25
925001 1 122.25 128.25 194.25
