ITEM: TIMESTEP
67186
ITEM: NUMBER OF ATOMS
18
ITEM: BOX BOUNDS pp pp pp
0 240
0 240
0 240
ITEM: ATOMS id type x y z
213793 1 96.75 96.75 99.75
226830 1 87.75 105.75 105.75
239709 1 84.75 108.75 111.75
252516 1 105.75 108.75 117.75
258833 1 96.75 105.75 120.75
258838 1 111.75 105.75 120.75
258916 1 105.75 108.75 120.75
265152 1 93.75 102.75 123.75
277641 1 120.75 90.75 129.75
290997 1 108.75 111.75 135.75
335478 1 111.75 99.75 156.75
348602 1 123.75 111.75 162.75
725793 1 98.25 98.25 101.25
726034 1 101.25 107.25 101.25
789717 1 110.25 95.25 131.25
790117 1 110.25 110.25 131.25
796198 1 113.25 98.25 134.25
822112 1 95.25 110.25 146.25
