ITEM: TIMESTEP
67000
ITEM: NUMBER OF ATOMS
15
ITEM: BOX BOUNDS pp pp pp
0 240
0 240
0 240
ITEM: ATOMS id type x y z c_myKE c_myPE
674279 1 117.057 85.1975 73.7144 0.00783271 -6.64895
732350 1 89.3269 102.537 104.15 0.206139 -6.71158
733472 1 94.6545 146.947 104.333 0.21613 -6.74396
752587 1 76.6797 145.512 113.621 0.28104 -6.30232
785174 1 164.793 167.997 129.629 0.0502906 -6.82458
788992 1 94.9042 64.0811 133.003 0.0329463 -6.48333
802841 1 123.507 105.676 137.337 0.0784535 -5.48476
802993 1 95.9633 114.178 139.246 0.0807098 -6.83493
130353 1 94.3748 84.8171 56.1446 0.1953 -6.7265
227952 1 93.1695 148.894 105.684 0.163275 -6.77592
234272 1 93.09 145.392 108.911 0.0856796 -6.86569
291405 1 134.503 126.147 135.827 0.414045 -7.38343
291484 1 131.191 129.523 135.897 0.296186 -7.21107
291074 1 97.6466 115.508 137.429 0.214776 -6.94351
323403 1 128.161 125.84 151.565 0.251926 -6.6305
