ITEM: TIMESTEP
66000
ITEM: NUMBER OF ATOMS
20
ITEM: BOX BOUNDS pp pp pp
0 240
0 240
0 240
ITEM: ATOMS id type x y z
207399 1 114.75 96.75 96.75
220596 1 105.75 111.75 102.75
233235 1 102.75 105.75 108.75
239166 1 135.75 87.75 111.75
239395 1 102.75 96.75 111.75
239474 1 99.75 99.75 111.75
251966 1 135.75 87.75 117.75
257889 1 144.75 69.75 120.75
284201 1 120.75 96.75 132.75
290682 1 123.75 99.75 135.75
732359 1 116.25 104.25 104.25
738594 1 101.25 98.25 107.25
745074 1 101.25 101.25 110.25
751474 1 101.25 101.25 113.25
757399 1 116.25 83.25 116.25
757485 1 134.25 86.25 116.25
757793 1 98.25 98.25 116.25
757794 1 101.25 98.25 116.25
783718 1 113.25 110.25 128.25
789797 1 110.25 98.25 131.25
