ITEM: TIMESTEP
67000
ITEM: NUMBER OF ATOMS
25
ITEM: BOX BOUNDS pp pp pp
0 240
0 240
0 240
ITEM: ATOMS id type x y z
194261 1 60.75 84.75 90.75
214756 1 105.75 132.75 99.75
226603 1 126.75 96.75 105.75
226684 1 129.75 99.75 105.75
233083 1 126.75 99.75 108.75
266038 1 111.75 135.75 123.75
284422 1 63.75 105.75 132.75
290038 1 111.75 75.75 135.75
290433 1 96.75 90.75 135.75
322842 1 123.75 105.75 150.75
386439 1 114.75 90.75 180.75
386440 1 117.75 90.75 180.75
732109 1 86.25 95.25 104.25
738683 1 128.25 101.25 107.25
745082 1 125.25 101.25 110.25
776366 1 137.25 74.25 125.25
789078 1 113.25 71.25 131.25
795558 1 113.25 74.25 134.25
795953 1 98.25 89.25 134.25
808912 1 95.25 95.25 140.25
821956 1 107.25 104.25 146.25
885560 1 119.25 89.25 176.25
891959 1 116.25 89.25 179.25
891961 1 122.25 89.25 179.25
898281 1 122.25 86.25 182.25
