ITEM: TIMESTEP
66000
ITEM: NUMBER OF ATOMS
20
ITEM: BOX BOUNDS pp pp pp
0 240
0 240
0 240
ITEM: ATOMS id type x y z
143713 1 96.75 108.75 66.75
150193 1 96.75 111.75 69.75
156989 1 84.75 126.75 72.75
188190 1 87.75 96.75 87.75
213480 1 117.75 84.75 99.75
213559 1 114.75 87.75 99.75
219879 1 114.75 84.75 102.75
219960 1 117.75 87.75 102.75
271477 1 108.75 99.75 126.75
341873 1 96.75 99.75 159.75
341954 1 99.75 102.75 159.75
348192 1 93.75 96.75 162.75
706510 1 89.25 95.25 92.25
706591 1 92.25 98.25 92.25
777076 1 107.25 101.25 125.25
847311 1 92.25 95.25 158.25
853712 1 95.25 95.25 161.25
853791 1 92.25 98.25 161.25
925066 1 77.25 131.25 194.25
937228 1 83.25 107.25 200.25
