ITEM: TIMESTEP
67259
ITEM: NUMBER OF ATOMS
23
ITEM: BOX BOUNDS pp pp pp
0 240
0 240
0 240
ITEM: ATOMS id type x y z
213799 1 114.75 96.75 99.75
213953 1 96.75 102.75 99.75
214189 1 84.75 111.75 99.75
220124 1 129.75 93.75 102.75
220441 1 120.75 105.75 102.75
226838 1 111.75 105.75 105.75
232762 1 123.75 87.75 108.75
233081 1 120.75 99.75 108.75
233240 1 117.75 105.75 108.75
233241 1 120.75 105.75 108.75
238937 1 168.75 78.75 111.75
258218 1 171.75 81.75 120.75
258367 1 138.75 87.75 120.75
719557 1 110.25 104.25 98.25
719792 1 95.25 113.25 98.25
726039 1 116.25 107.25 101.25
726041 1 122.25 107.25 101.25
732205 1 134.25 98.25 104.25
738599 1 116.25 98.25 107.25
738760 1 119.25 104.25 107.25
738839 1 116.25 107.25 107.25
751240 1 119.25 92.25 113.25
757324 1 131.25 80.25 116.25
