ITEM: TIMESTEP
66000
ITEM: NUMBER OF ATOMS
21
ITEM: BOX BOUNDS pp pp pp
0 240
0 240
0 240
ITEM: ATOMS id type x y z
132421 1 60.75 165.75 60.75
169238 1 111.75 105.75 78.75
175226 1 75.75 90.75 81.75
246914 1 99.75 138.75 114.75
246995 1 102.75 141.75 114.75
253313 1 96.75 138.75 117.75
253394 1 99.75 141.75 117.75
278269 1 84.75 114.75 129.75
323247 1 138.75 120.75 150.75
668437 1 110.25 107.25 74.25
674757 1 110.25 104.25 77.25
687226 1 77.25 92.25 83.25
700502 1 65.25 110.25 89.25
700899 1 56.25 125.25 89.25
707298 1 53.25 125.25 92.25
732041 1 122.25 92.25 104.25
745948 1 83.25 134.25 110.25
759388 1 83.25 158.25 116.25
790189 1 86.25 113.25 131.25
803571 1 152.25 134.25 137.25
809797 1 110.25 128.25 140.25
