ITEM: TIMESTEP
66124
ITEM: NUMBER OF ATOMS
18
ITEM: BOX BOUNDS pp pp pp
0 240
0 240
0 240
ITEM: ATOMS id type x y z
176039 1 114.75 120.75 81.75
194116 1 105.75 78.75 90.75
195091 1 150.75 114.75 90.75
220362 1 123.75 102.75 102.75
220443 1 126.75 105.75 102.75
226831 1 90.75 105.75 105.75
232994 1 99.75 96.75 108.75
233074 1 99.75 99.75 108.75
233232 1 93.75 105.75 108.75
234363 1 126.75 147.75 108.75
234444 1 129.75 150.75 108.75
240764 1 129.75 147.75 111.75
681559 1 116.25 119.25 80.25
694994 1 101.25 143.25 86.25
706036 1 107.25 77.25 92.25
731069 1 86.25 56.25 104.25
738752 1 95.25 104.25 107.25
744994 1 101.25 98.25 110.25
