ITEM: TIMESTEP
66000
ITEM: NUMBER OF ATOMS
9
ITEM: BOX BOUNDS pp pp pp
0 240
0 240
0 240
ITEM: ATOMS id type x y z c_myKE c_myPE
719482 1 123.811 99.1575 95.9335 0.018595 -6.79032
770114 1 99.1344 76.8364 123.21 0.0185497 -6.49579
776513 1 96.0508 76.9322 126.464 0.072883 -7.27405
200760 1 119.791 86.6676 90.0967 0.118022 -6.09111
206767 1 140.564 68.4985 97.7968 0.0765613 -6.45307
720354 1 102.678 134.634 96.3233 0.102799 -6.6522
252655 1 37.1336 113.434 118.571 0.0864136 -6.05953
278505 1 68.7825 124.82 131.171 0.211585 -5.87829
285000 1 119.837 128.024 134.36 0.311846 -5.84622
