ITEM: TIMESTEP
68146
ITEM: NUMBER OF ATOMS
13
ITEM: BOX BOUNDS pp pp pp
0 240
0 240
0 240
ITEM: ATOMS id type x y z
220118 1 111.75 93.75 102.75
258999 1 114.75 111.75 120.75
264602 1 123.75 81.75 123.75
271475 1 102.75 99.75 126.75
278120 1 117.75 108.75 129.75
278358 1 111.75 117.75 129.75
278360 1 117.75 117.75 129.75
284198 1 111.75 96.75 132.75
290836 1 105.75 105.75 135.75
744835 1 104.25 92.25 110.25
783556 1 107.25 104.25 128.25
802204 1 131.25 83.25 137.25
809317 1 110.25 110.25 140.25
