ITEM: TIMESTEP
70235
ITEM: NUMBER OF ATOMS
27
ITEM: BOX BOUNDS pp pp pp
0 240
0 240
0 240
ITEM: ATOMS id type x y z c_myKE c_myPE
674224 1 196.706 79.9286 73.5668 0 -6.81435
680624 1 193.46 79.8238 76.8314 0 -6.53753
712380 1 183.967 70.384 92.7214 0 -6.82508
718860 1 184.094 73.6386 95.9761 0 -6.55207
718950 1 215.564 78.3795 95.7008 0 -7.06231
725271 1 216.989 75.8766 98.9442 0 -6.77508
725429 1 213.06 79.801 98.9408 0 -6.79597
725879 1 115.122 98.9077 99.5906 0 -7.82921
770077 1 238.079 73.3712 123.228 0 -6.46479
802452 1 159.366 90.9878 137.708 0 -7.3399
796133 1 163.154 95.9079 136.07 0 -6.78209
802532 1 155.599 91.2339 140.773 0 -7.34204
808933 1 160.144 91.6175 140.735 0 -6.86573
297014 1 159.392 94.335 141.045 0 -7.3888
181669 1 209.152 87.9155 81.5403 0 -6.2539
188706 1 201.527 113.443 84.7307 0 -6.25521
712999 1 116.561 96.5877 96.2888 0 -6.85306
220126 1 137.74 91.0934 99.4593 0 -6.28382
220360 1 117.141 100.437 99.2398 0 -7.81707
719560 1 118.81 102.394 99.142 0 -7.19339
232387 1 204.71 68.7675 107.064 0 -6.26089
257996 1 233.392 68.6375 121.797 0 -6.6968
264397 1 236.727 68.8195 124.863 0 -7.1323
265191 1 217.478 100.684 124.958 0 -6.2552
802531 1 157.692 92.9233 137.28 0 -8.00376
329024 1 193.09 94.3738 156.781 0 -6.5481
335344 1 193.213 91.1183 160.037 0 -6.82344
