ITEM: TIMESTEP
66236
ITEM: NUMBER OF ATOMS
23
ITEM: BOX BOUNDS pp pp pp
0 240
0 240
0 240
ITEM: ATOMS id type x y z c_myKE c_myPE
712590 1 86.404 81.8045 92.6025 0 -6.54824
712669 1 83.1477 85.0611 92.7256 0 -6.8245
738662 1 62.6068 98.9451 107.408 0 -7.2287
750925 1 136.126 76.7398 111.851 0 -6.25207
745064 1 65.9495 102.36 110.485 0 -7.11082
264274 1 100.901 68.9811 121.294 0 -6.67669
776101 1 57.6126 62.7384 124.614 0 -6.2553
796366 1 137.321 104.211 133.135 0 -7.07776
815406 1 137.347 97.8603 145.819 0 -6.85082
834123 1 129.735 76.7443 155.272 0 -6.25466
233142 1 61.1287 100.648 108.999 0 -7.33616
233144 1 64.2284 100.461 108.938 0 -7.47361
751464 1 65.6058 99.4507 113.476 0 -7.33611
769876 1 102.561 70.6462 122.767 0 -7.13935
264437 1 105.849 74.0261 123.016 0 -7.6778
264595 1 102.748 77.1243 123.058 0 -6.95289
277314 1 102.561 73.8987 126.39 0 -6.70233
270355 1 100.663 54.7131 128.194 0 -6.26425
802766 1 139.127 102.321 134.557 0 -6.78306
290767 1 142.279 102.563 137.854 0 -6.72102
297248 1 138.856 105.821 137.741 0 -7.64834
309807 1 139.118 96.0819 147.406 0 -6.55349
322119 1 113.442 75.1494 151.732 0 -6.25356
