ITEM: TIMESTEP
65268
ITEM: NUMBER OF ATOMS
19
ITEM: BOX BOUNDS pp pp pp
0 240
0 240
0 240
ITEM: ATOMS id type x y z c_myKE c_myPE
668595 1 102.15 111.819 72.3483 0 -6.89075
675868 1 79.9514 148.862 73.5722 0 -6.82235
682188 1 79.826 145.606 76.8275 0 -6.54872
175879 1 111.605 111.719 78.6843 0 -7.68428
694039 1 111.856 108.692 81.9302 0 -7.00368
188677 1 105.735 111.936 81.8954 0 -7.2862
835317 1 110.707 126.464 155.173 0 -6.54635
841797 1 110.582 129.721 158.428 0 -6.82079
156675 1 100.574 113.593 70.5676 0 -6.56337
687717 1 110.366 110.255 76.8677 0 -6.87963
687877 1 110.186 113.365 76.8773 0 -7.27365
175957 1 107.014 116.792 77.0898 0 -6.67281
681477 1 110.203 116.285 80.4785 0 -7.29028
200841 1 121.844 89.7747 92.9444 0 -6.58248
201000 1 118.469 93.1358 92.9417 0 -6.56879
201006 1 134.519 94.3191 93.0669 0 -6.25459
207321 1 121.795 93.1035 96.2514 0 -7.52965
233649 1 147.283 119.82 107.055 0 -6.25522
784435 1 103.861 138.953 131.325 0 -6.25501
