ITEM: TIMESTEP
68248
ITEM: NUMBER OF ATOMS
27
ITEM: BOX BOUNDS pp pp pp
0 240
0 240
0 240
ITEM: ATOMS id type x y z
269963 1 126.75 42.75 126.75
271003 1 126.75 81.75 126.75
271469 1 84.75 99.75 126.75
271470 1 87.75 99.75 126.75
271549 1 84.75 102.75 126.75
277790 1 87.75 96.75 129.75
277869 1 84.75 99.75 129.75
353328 1 141.75 48.75 165.75
617494 1 161.25 116.25 50.25
687473 1 98.25 101.25 83.25
712520 1 119.25 80.25 95.25
712601 1 122.25 83.25 95.25
719721 1 122.25 110.25 98.25
726122 1 125.25 110.25 101.25
726201 1 122.25 113.25 101.25
777068 1 83.25 101.25 125.25
782843 1 128.25 77.25 128.25
782922 1 125.25 80.25 128.25
782923 1 128.25 80.25 128.25
822441 1 122.25 122.25 146.25
839719 1 116.25 50.25 155.25
846126 1 137.25 50.25 158.25
852446 1 137.25 47.25 161.25
852527 1 140.25 50.25 161.25
858928 1 143.25 50.25 164.25
859962 1 125.25 89.25 164.25
866045 1 134.25 77.25 167.25
