ITEM: TIMESTEP
68000
ITEM: NUMBER OF ATOMS
22
ITEM: BOX BOUNDS pp pp pp
0 240
0 240
0 240
ITEM: ATOMS id type x y z
220513 1 96.75 108.75 102.75
220672 1 93.75 114.75 102.75
233150 1 87.75 102.75 108.75
251791 1 90.75 81.75 117.75
258191 1 90.75 81.75 120.75
258997 1 108.75 111.75 120.75
265880 1 117.75 129.75 123.75
271876 1 105.75 114.75 126.75
291725 1 132.75 138.75 135.75
295709 1 84.75 48.75 138.75
745153 1 98.25 104.25 110.25
751714 1 101.25 110.25 113.25
757872 1 95.25 101.25 116.25
758355 1 104.25 119.25 116.25
777556 1 107.25 119.25 125.25
801469 1 86.25 56.25 137.25
820430 1 89.25 47.25 146.25
826587 1 80.25 38.25 149.25
826667 1 80.25 41.25 149.25
845868 1 83.25 41.25 158.25
871466 1 77.25 41.25 170.25
903544 1 71.25 44.25 185.25
