ITEM: TIMESTEP
67000
ITEM: NUMBER OF ATOMS
16
ITEM: BOX BOUNDS pp pp pp
0 240
0 240
0 240
ITEM: ATOMS id type x y z
169161 1 120.75 102.75 78.75
175801 1 120.75 111.75 81.75
201480 1 117.75 114.75 93.75
207710 1 87.75 108.75 96.75
226680 1 117.75 99.75 105.75
239479 1 114.75 99.75 111.75
687641 1 122.25 107.25 83.25
687642 1 125.25 107.25 83.25
693969 1 146.25 104.25 86.25
694039 1 116.25 107.25 86.25
712918 1 113.25 95.25 95.25
719881 1 122.25 116.25 98.25
725795 1 104.25 98.25 101.25
726123 1 128.25 110.25 101.25
732287 1 140.25 101.25 104.25
739163 1 128.25 119.25 107.25
