ITEM: TIMESTEP
67155
ITEM: NUMBER OF ATOMS
16
ITEM: BOX BOUNDS pp pp pp
0 240
0 240
0 240
ITEM: ATOMS id type x y z c_myKE c_myPE
636136 1 171.208 94.6403 56.3619 0 -6.25393
649155 1 104.221 104.207 60.7962 0 -6.25487
686922 1 124.606 76.744 79.9383 0 -6.25438
701153 1 97.6793 135.946 86.201 0 -6.54005
706192 1 92.7868 81.7961 89.3905 0 -6.55081
706271 1 89.5278 85.0463 89.5209 0 -6.82121
707718 1 113.782 140.533 91.4468 0 -6.2546
214349 1 85.2933 118.554 99.2044 0 -7.39515
726349 1 83.4581 120.345 99.4025 0 -7.01858
744668 1 81.896 83.1207 108.653 0 -6.25446
784202 1 124.605 129.727 129.73 0 -6.25358
104363 1 126.203 68.7728 43.2576 0 -6.25405
182690 1 150.393 131.239 81.4113 0 -6.54604
182771 1 153.648 134.494 81.5349 0 -6.82047
195634 1 99.4488 137.718 87.7833 0 -6.82484
726268 1 83.1261 115.898 100.967 0 -6.59789
