ITEM: TIMESTEP
67000
ITEM: NUMBER OF ATOMS
16
ITEM: BOX BOUNDS pp pp pp
0 240
0 240
0 240
ITEM: ATOMS id type x y z
227545 1 72.75 132.75 105.75
240833 1 96.75 150.75 111.75
310678 1 111.75 129.75 144.75
317077 1 108.75 129.75 147.75
317078 1 111.75 129.75 147.75
323561 1 120.75 132.75 150.75
732270 1 89.25 101.25 104.25
746353 1 98.25 149.25 110.25
751550 1 89.25 104.25 113.25
757951 1 92.25 104.25 116.25
816910 1 89.25 155.25 143.25
829077 1 110.25 131.25 149.25
829161 1 122.25 134.25 149.25
835561 1 122.25 134.25 152.25
848350 1 89.25 134.25 158.25
873646 1 137.25 122.25 170.25
