ITEM: TIMESTEP
67000
ITEM: NUMBER OF ATOMS
16
ITEM: BOX BOUNDS pp pp pp
0 240
0 240
0 240
ITEM: ATOMS id type x y z
226356 1 105.75 87.75 105.75
239719 1 114.75 108.75 111.75
240038 1 111.75 120.75 111.75
258516 1 105.75 93.75 120.75
258756 1 105.75 102.75 120.75
259552 1 93.75 132.75 120.75
264996 1 105.75 96.75 123.75
278036 1 105.75 105.75 129.75
297081 1 120.75 99.75 138.75
732917 1 110.25 125.25 104.25
739552 1 95.25 134.25 107.25
764196 1 107.25 98.25 119.25
764354 1 101.25 104.25 119.25
777158 1 113.25 104.25 125.25
815871 1 92.25 116.25 143.25
816201 1 122.25 128.25 143.25
