ITEM: TIMESTEP
66000
ITEM: NUMBER OF ATOMS
13
ITEM: BOX BOUNDS pp pp pp
0 240
0 240
0 240
ITEM: ATOMS id type x y z c_myKE c_myPE
694349 1 85.069 120.026 83.0722 0.0637197 -6.97358
700669 1 85.1159 116.635 86.5008 0.136467 -7.45046
744761 1 123.754 86.4679 110.563 0.0711722 -6.40543
776523 1 127.942 76.7842 124.76 0.224302 -6.12921
821881 1 120.693 99.0528 148.459 0.122454 -6.1459
840035 1 104.109 57.5013 158.279 0.0645902 -6.34304
853949 1 83.4905 102.571 165 0.0930657 -6.48572
188831 1 89.7733 121.391 84.7826 0.0391645 -6.66179
201868 1 77.987 129.5 91.401 0.135896 -6.19618
234268 1 80.2912 144.018 109.067 0.144407 -6.85268
782290 1 150.883 51.4436 126.495 0.106122 -5.59112
290532 1 154.809 91.3561 135.713 0.178166 -6.27918
297152 1 91.2889 103.11 140.554 0.472966 -6.84108
