ITEM: TIMESTEP
65000
ITEM: NUMBER OF ATOMS
23
ITEM: BOX BOUNDS pp pp pp
0 240
0 240
0 240
ITEM: ATOMS id type x y z
220274 1 99.75 99.75 102.75
220275 1 102.75 99.75 102.75
233154 1 99.75 102.75 108.75
233554 1 99.75 117.75 108.75
239074 1 99.75 84.75 111.75
239076 1 105.75 84.75 111.75
239395 1 102.75 96.75 111.75
239479 1 114.75 99.75 111.75
239795 1 102.75 111.75 111.75
245876 1 105.75 99.75 114.75
712355 1 104.25 74.25 95.25
725393 1 98.25 83.25 101.25
732354 1 101.25 104.25 104.25
732356 1 107.25 104.25 104.25
732434 1 101.25 107.25 104.25
744753 1 98.25 89.25 110.25
745072 1 95.25 101.25 110.25
745076 1 107.25 101.25 110.25
745152 1 95.25 104.25 110.25
745155 1 104.25 104.25 110.25
751150 1 89.25 89.25 113.25
751634 1 101.25 107.25 113.25
757798 1 113.25 98.25 116.25
