ITEM: TIMESTEP
65206
ITEM: NUMBER OF ATOMS
16
ITEM: BOX BOUNDS pp pp pp
0 240
0 240
0 240
ITEM: ATOMS id type x y z
220115 1 102.75 93.75 102.75
220994 1 99.75 126.75 102.75
264514 1 99.75 78.75 123.75
270919 1 114.75 78.75 126.75
283637 1 108.75 75.75 132.75
713636 1 107.25 122.25 95.25
726834 1 101.25 137.25 101.25
732676 1 107.25 116.25 104.25
739314 1 101.25 125.25 107.25
744750 1 89.25 89.25 110.25
757479 1 116.25 86.25 116.25
758031 1 92.25 107.25 116.25
763720 1 119.25 80.25 119.25
769798 1 113.25 68.25 122.25
776598 1 113.25 83.25 125.25
776760 1 119.25 89.25 125.25
