ITEM: TIMESTEP
66309
ITEM: NUMBER OF ATOMS
15
ITEM: BOX BOUNDS pp pp pp
0 240
0 240
0 240
ITEM: ATOMS id type x y z c_myKE c_myPE
694208 1 145.678 111.84 83.1363 0 -6.25452
719384 1 67.1696 95.8964 95.8941 0 -6.25507
726992 1 94.641 145.687 101.032 0 -6.25419
764426 1 75.521 105.426 117.003 0 -7.06721
790581 1 57.611 127.797 132.933 0 -6.25444
175544 1 65.5793 102.626 80.293 0 -6.25557
246027 1 77.2496 103.844 115.59 0 -7.39638
252347 1 76.9059 100.531 118.389 0 -7.24183
252426 1 74.1104 103.841 118.732 0 -7.39897
271399 1 116.626 96.2498 128.137 0 -6.25624
298431 1 87.9145 153.665 140.903 0 -6.25462
316200 1 118.265 95.9237 148.351 0 -7.0563
821719 1 118.265 94.1005 150.17 0 -7.08174
316278 1 115.739 97.3569 151.566 0 -6.78329
355790 1 86.6704 144.093 167.67 0 -6.25453
