ITEM: TIMESTEP
66222
ITEM: NUMBER OF ATOMS
18
ITEM: BOX BOUNDS pp pp pp
0 240
0 240
0 240
ITEM: ATOMS id type x y z
220682 1 123.75 114.75 102.75
239633 1 96.75 105.75 111.75
252753 1 96.75 117.75 117.75
258510 1 87.75 93.75 120.75
264992 1 93.75 96.75 123.75
265395 1 102.75 111.75 123.75
277874 1 99.75 99.75 129.75
278123 1 126.75 108.75 129.75
726280 1 119.25 116.25 101.25
738594 1 101.25 98.25 107.25
738841 1 122.25 107.25 107.25
744913 1 98.25 95.25 110.25
751800 1 119.25 113.25 113.25
757954 1 101.25 104.25 116.25
764033 1 98.25 92.25 119.25
764434 1 101.25 107.25 119.25
770595 1 104.25 98.25 122.25
783716 1 107.25 110.25 128.25
