ITEM: TIMESTEP
66000
ITEM: NUMBER OF ATOMS
22
ITEM: BOX BOUNDS pp pp pp
0 240
0 240
0 240
ITEM: ATOMS id type x y z
136759 1 114.75 87.75 63.75
136838 1 111.75 90.75 63.75
221153 1 96.75 132.75 102.75
226050 1 147.75 75.75 105.75
227637 1 108.75 135.75 105.75
234036 1 105.75 135.75 108.75
258048 1 141.75 75.75 120.75
266123 1 126.75 138.75 123.75
290353 1 96.75 87.75 135.75
296752 1 93.75 87.75 138.75
656033 1 98.25 122.25 68.25
673630 1 89.25 62.25 77.25
731569 1 146.25 74.25 104.25
737969 1 146.25 74.25 107.25
739636 1 107.25 137.25 107.25
744362 1 125.25 74.25 110.25
758044 1 131.25 107.25 116.25
763887 1 140.25 86.25 119.25
777638 1 113.25 122.25 125.25
789626 1 77.25 92.25 131.25
814298 1 173.25 56.25 143.25
828422 1 65.25 107.25 149.25
