ITEM: TIMESTEP
67200
ITEM: NUMBER OF ATOMS
16
ITEM: BOX BOUNDS pp pp pp
0 240
0 240
0 240
ITEM: ATOMS id type x y z c_myKE c_myPE
661501 1 183.979 83.1406 69.1327 0 -6.25477
669329 1 148.919 142.579 69.0224 0 -7.31874
694132 1 156.512 110.607 85.0746 0 -6.25497
738363 1 127.786 91.5872 107.422 0 -6.8265
739896 1 171.218 148.892 107.412 0 -6.25306
758117 1 108.653 108.656 116.98 0 -6.25763
150930 1 150.429 140.857 67.5073 0 -7.29539
157250 1 148.538 139.223 72.1735 0 -7.35078
669169 1 150.418 137.819 70.9101 0 -7.86545
157411 1 151.873 142.12 71.9415 0 -7.74519
157331 1 153.667 140.745 70.501 0 -7.58011
163650 1 150.289 137.513 73.8177 0 -7.10108
232431 1 87.9256 71.9712 107.063 0 -6.25401
738443 1 129.557 93.1701 105.652 0 -6.5429
271478 1 112.111 99.5508 128.071 0 -6.5435
277879 1 115.372 99.4323 131.325 0 -6.82067
