ITEM: TIMESTEP
66321
ITEM: NUMBER OF ATOMS
20
ITEM: BOX BOUNDS pp pp pp
0 240
0 240
0 240
ITEM: ATOMS id type x y z c_myKE c_myPE
701000 1 118.221 129.736 88.2666 0 -6.25343
731708 1 81.8883 78.6923 102.273 0 -6.25467
739878 1 111.836 150.128 105.468 0 -6.25541
770441 1 121.566 91.2207 123.457 0 -6.75524
264920 1 118.241 94.599 123.299 0 -7.02836
271955 1 101.212 115.348 124.923 0 -7.06414
771072 1 97.9848 117.849 123.495 0 -6.79405
776921 1 121.225 94.6919 126.553 0 -7.69281
777554 1 97.9527 113.947 127.427 0 -6.78581
290505 1 69.1084 91.4395 134.184 0 -6.82116
796025 1 70.3786 89.5214 136.105 0 -6.8212
816357 1 108.647 134.178 143.754 0 -6.25308
169229 1 83.4813 103.865 77.0975 0 -6.25469
220666 1 71.9867 113.357 100.689 0 -6.91199
226986 1 71.9868 110.259 103.784 0 -6.90892
227067 1 75.3224 113.442 103.884 0 -6.60228
259323 1 128.137 124.953 121.768 0 -6.25508
266273 1 94.2938 147.284 123.008 0 -6.25473
271243 1 126.295 89.8001 128.269 0 -6.70142
271322 1 123.012 92.8346 128.015 0 -7.20416
