ITEM: TIMESTEP
66000
ITEM: NUMBER OF ATOMS
23
ITEM: BOX BOUNDS pp pp pp
0 240
0 240
0 240
ITEM: ATOMS id type x y z
226664 1 69.75 99.75 105.75
233161 1 120.75 102.75 108.75
239314 1 99.75 93.75 111.75
252193 1 96.75 96.75 117.75
252436 1 105.75 105.75 117.75
264592 1 93.75 81.75 123.75
265077 1 108.75 99.75 123.75
265156 1 105.75 102.75 123.75
265473 1 96.75 114.75 123.75
713303 1 68.25 110.25 95.25
713304 1 71.25 110.25 95.25
731959 1 116.25 89.25 104.25
738748 1 83.25 104.25 107.25
738913 1 98.25 110.25 107.25
744757 1 110.25 89.25 110.25
744834 1 101.25 92.25 110.25
751236 1 107.25 92.25 113.25
751393 1 98.25 98.25 113.25
757393 1 98.25 83.25 116.25
757795 1 104.25 98.25 116.25
757955 1 104.25 104.25 116.25
764274 1 101.25 101.25 119.25
770510 1 89.25 95.25 122.25
