ITEM: TIMESTEP
66167
ITEM: NUMBER OF ATOMS
23
ITEM: BOX BOUNDS pp pp pp
0 240
0 240
0 240
ITEM: ATOMS id type x y z c_myKE c_myPE
718994 1 98.7913 80.1996 96.0887 0 -7.29032
719788 1 81.889 111.845 97.8281 0 -6.25303
731865 1 70.3774 85.0634 102.082 0 -6.97538
725784 1 63.6178 91.212 100.82 0 -7.285
834673 1 99.2784 100.771 153.356 0 -7.72332
329075 1 100.89 102.186 155.121 0 -8.11877
834835 1 104.266 105.283 155.231 0 -7.56173
840993 1 97.772 95.8688 158.452 0 -7.02034
136433 1 96.2482 71.9641 59.2098 0 -6.25462
200032 1 93.0627 56.0138 91.1068 0 -6.25448
213395 1 100.518 80.1191 97.9895 0 -7.84619
725315 1 102.424 80.0368 99.7071 0 -7.26481
219866 1 72.1198 83.3253 100.554 0 -6.56086
732103 1 65.5501 89.4678 100.736 0 -7.35234
245076 1 105.741 65.4632 115.311 0 -6.54709
251477 1 108.996 65.5911 118.567 0 -6.82007
316356 1 103.956 99.3269 151.702 0 -8.04899
840915 1 103.776 96.3308 154.911 0 -7.68356
834676 1 103.892 99.3986 154.958 0 -8.46786
322596 1 106.991 99.446 154.887 0 -7.65331
322755 1 104.013 102.489 154.935 0 -8.14045
207393 1 100.427 96.1356 158.201 0 -7.2491
329235 1 102.626 103.787 156.852 0 -7.87823
