ITEM: TIMESTEP
67000
ITEM: NUMBER OF ATOMS
16
ITEM: BOX BOUNDS pp pp pp
0 240
0 240
0 240
ITEM: ATOMS id type x y z
207393 1 96.75 96.75 96.75
240441 1 120.75 135.75 111.75
246994 1 99.75 141.75 114.75
247157 1 108.75 147.75 114.75
247159 1 114.75 147.75 114.75
259957 1 108.75 147.75 120.75
272518 1 111.75 138.75 126.75
278916 1 105.75 138.75 129.75
731878 1 113.25 86.25 104.25
732520 1 119.25 110.25 104.25
738913 1 98.25 110.25 107.25
745959 1 116.25 134.25 110.25
752514 1 101.25 140.25 113.25
752756 1 107.25 149.25 113.25
765716 1 107.25 155.25 119.25
790917 1 110.25 140.25 131.25
