ITEM: TIMESTEP
65219
ITEM: NUMBER OF ATOMS
15
ITEM: BOX BOUNDS pp pp pp
0 240
0 240
0 240
ITEM: ATOMS id type x y z c_myKE c_myPE
719240 1 120.169 89.5215 97.8135 0 -6.8246
719319 1 116.917 92.7718 97.9417 0 -6.55298
239545 1 69.121 97.9126 111.859 0 -6.91253
745143 1 66.0253 101.008 111.86 0 -6.90875
239544 1 67.1475 99.0341 113.792 0 -7.52355
757956 1 110.294 98.8899 115.349 0 -7.05755
252276 1 108.46 100.697 115.356 0 -7.09781
758258 1 48.0537 116.974 115.03 0 -6.25529
763798 1 110.613 81.8649 118.215 0 -6.255
757798 1 110.289 100.716 117.17 0 -7.06765
769952 1 92.5905 72.231 120.087 0 -6.55166
776591 1 91.5764 76.821 124.677 0 -6.55178
137555 1 100.69 118.561 59.214 0 -6.81927
143956 1 103.947 118.686 62.4676 0 -6.54666
195392 1 93.0567 129.387 87.9092 0 -6.25403
