ITEM: TIMESTEP
67000
ITEM: NUMBER OF ATOMS
17
ITEM: BOX BOUNDS pp pp pp
0 240
0 240
0 240
ITEM: ATOMS id type x y z
233158 1 111.75 102.75 108.75
259233 1 96.75 120.75 120.75
271875 1 102.75 114.75 126.75
278115 1 102.75 108.75 129.75
290915 1 102.75 108.75 135.75
297161 1 120.75 102.75 138.75
310198 1 111.75 111.75 144.75
777229 1 86.25 107.25 125.25
784192 1 95.25 128.25 128.25
789716 1 107.25 95.25 131.25
796357 1 110.25 104.25 134.25
796516 1 107.25 110.25 134.25
796594 1 101.25 113.25 134.25
802598 1 113.25 98.25 137.25
809238 1 113.25 107.25 140.25
815956 1 107.25 119.25 143.25
886119 1 116.25 110.25 176.25
