ITEM: TIMESTEP
66000
ITEM: NUMBER OF ATOMS
15
ITEM: BOX BOUNDS pp pp pp
0 240
0 240
0 240
ITEM: ATOMS id type x y z c_myKE c_myPE
688668 1 79.9781 148.823 81.8513 0.285844 -6.40657
693866 1 73.6642 99.122 85.416 0.0267122 -6.50332
695069 1 83.3081 148.921 84.9788 0.199577 -7.27523
695148 1 79.6708 151.955 85.0125 0.0210187 -6.99083
701468 1 80.2506 148.911 88.2825 0.132207 -7.45953
719155 1 102.275 86.119 95.8879 0.132946 -6.37887
713620 1 54.2551 123.157 94.6472 0.371198 -6.17928
725554 1 99.4823 86.2628 99.2013 0.128131 -6.57197
776838 1 112.095 91.5308 128.041 0.0831097 -6.02769
130109 1 81.6366 75.4571 55.7002 0.262325 -6.41898
189236 1 104.046 135.678 86.6243 0.315377 -6.17565
200190 1 84.654 64.344 93.3479 0.0200138 -6.7125
220116 1 103.693 91.1644 100.305 0.131289 -7.20449
226436 1 104.127 87.841 103.68 0.00703094 -6.30572
296748 1 80.1637 85.1424 140.993 0.160793 -6.01348
