ITEM: TIMESTEP
65000
ITEM: NUMBER OF ATOMS
18
ITEM: BOX BOUNDS pp pp pp
0 240
0 240
0 240
ITEM: ATOMS id type x y z
239794 1 99.75 111.75 111.75
240192 1 93.75 126.75 111.75
246032 1 93.75 105.75 114.75
252356 1 105.75 102.75 117.75
252756 1 105.75 117.75 117.75
265231 1 90.75 105.75 123.75
265394 1 99.75 111.75 123.75
270999 1 114.75 81.75 126.75
278267 1 78.75 114.75 129.75
290986 1 75.75 111.75 135.75
745152 1 95.25 104.25 110.25
752032 1 95.25 122.25 113.25
757959 1 116.25 104.25 116.25
764912 1 95.25 125.25 119.25
770753 1 98.25 104.25 122.25
770834 1 101.25 107.25 122.25
771147 1 80.25 119.25 122.25
784510 1 89.25 140.25 128.25
