ITEM: TIMESTEP
70228
ITEM: NUMBER OF ATOMS
18
ITEM: BOX BOUNDS pp pp pp
0 240
0 240
0 240
ITEM: ATOMS id type x y z
252274 1 99.75 99.75 117.75
252676 1 105.75 114.75 117.75
258833 1 96.75 105.75 120.75
259465 1 72.75 129.75 120.75
271475 1 102.75 99.75 126.75
297945 1 72.75 132.75 138.75
304503 1 66.75 138.75 141.75
304505 1 72.75 138.75 141.75
764030 1 89.25 92.25 119.25
764197 1 110.25 98.25 119.25
770675 1 104.25 101.25 122.25
777231 1 92.25 107.25 125.25
783628 1 83.25 107.25 128.25
796829 1 86.25 122.25 134.25
810022 1 65.25 137.25 140.25
810023 1 68.25 137.25 140.25
810024 1 71.25 137.25 140.25
841787 1 80.25 128.25 155.25
