ITEM: TIMESTEP
69000
ITEM: NUMBER OF ATOMS
15
ITEM: BOX BOUNDS pp pp pp
0 240
0 240
0 240
ITEM: ATOMS id type x y z
220752 1 93.75 117.75 102.75
220914 1 99.75 123.75 102.75
227389 1 84.75 126.75 105.75
233635 1 102.75 120.75 108.75
240035 1 102.75 120.75 111.75
246589 1 84.75 126.75 114.75
252914 1 99.75 123.75 117.75
713394 1 101.25 113.25 95.25
719312 1 95.25 95.25 98.25
738671 1 92.25 101.25 107.25
738830 1 89.25 107.25 107.25
738910 1 89.25 110.25 107.25
745156 1 107.25 104.25 110.25
745633 1 98.25 122.25 110.25
758275 1 104.25 116.25 116.25
