ITEM: TIMESTEP
69124
ITEM: NUMBER OF ATOMS
13
ITEM: BOX BOUNDS pp pp pp
0 240
0 240
0 240
ITEM: ATOMS id type x y z c_myKE c_myPE
201154 1 97.6682 104.331 88.111 0 -6.53838
720041 1 124.604 124.6 95.8898 0 -6.25358
783079 1 115.025 85.088 127.793 0 -6.25659
790107 1 76.646 108.689 132.906 0 -6.96507
795407 1 140.544 63.9939 136.116 0 -6.25184
796427 1 76.6611 105.459 136.138 0 -6.90632
189463 1 62.3892 147.281 84.7386 0 -6.25379
706674 1 99.4389 102.749 89.881 0 -6.82543
777386 1 75.0662 113.569 128.022 0 -6.47322
278187 1 75.0436 110.382 131.212 0 -6.97031
317382 1 59.1155 143.991 150.381 0 -6.57386
323783 1 62.4839 143.989 153.747 0 -6.56911
323862 1 59.161 147.299 153.706 0 -7.52122
