ITEM: TIMESTEP
66000
ITEM: NUMBER OF ATOMS
17
ITEM: BOX BOUNDS pp pp pp
0 240
0 240
0 240
ITEM: ATOMS id type x y z
194983 1 66.75 111.75 90.75
233712 1 93.75 123.75 108.75
240113 1 96.75 123.75 111.75
264516 1 105.75 78.75 123.75
265240 1 117.75 105.75 123.75
284437 1 108.75 105.75 132.75
284518 1 111.75 108.75 132.75
623244 1 131.25 92.25 53.25
732280 1 119.25 101.25 104.25
738681 1 122.25 101.25 107.25
745970 1 149.25 134.25 110.25
764506 1 77.25 110.25 119.25
776435 1 104.25 77.25 125.25
782755 1 104.25 74.25 128.25
790038 1 113.25 107.25 131.25
828041 1 122.25 92.25 149.25
834361 1 122.25 89.25 152.25
