ITEM: TIMESTEP
65000
ITEM: NUMBER OF ATOMS
19
ITEM: BOX BOUNDS pp pp pp
0 240
0 240
0 240
ITEM: ATOMS id type x y z
182208 1 141.75 111.75 84.75
200926 1 135.75 93.75 93.75
214277 1 108.75 114.75 99.75
214281 1 120.75 114.75 99.75
226593 1 96.75 96.75 105.75
233237 1 108.75 105.75 108.75
238996 1 105.75 81.75 111.75
252515 1 102.75 108.75 117.75
252595 1 102.75 111.75 117.75
719324 1 131.25 95.25 98.25
725872 1 95.25 101.25 101.25
725885 1 134.25 101.25 101.25
726284 1 131.25 116.25 101.25
732518 1 113.25 110.25 104.25
732839 1 116.25 122.25 104.25
738676 1 107.25 101.25 107.25
745239 1 116.25 107.25 110.25
745718 1 113.25 125.25 110.25
758117 1 110.25 110.25 116.25
