ITEM: TIMESTEP
66458
ITEM: NUMBER OF ATOMS
15
ITEM: BOX BOUNDS pp pp pp
0 240
0 240
0 240
ITEM: ATOMS id type x y z
195075 1 102.75 114.75 90.75
195798 1 111.75 141.75 90.75
214835 1 102.75 135.75 99.75
221315 1 102.75 138.75 102.75
252754 1 99.75 117.75 117.75
252996 1 105.75 126.75 117.75
259397 1 108.75 126.75 120.75
259399 1 114.75 126.75 120.75
259477 1 108.75 129.75 120.75
694913 1 98.25 140.25 86.25
700512 1 95.25 110.25 89.25
707636 1 107.25 137.25 92.25
707875 1 104.25 146.25 92.25
720589 1 86.25 143.25 98.25
745716 1 107.25 125.25 110.25
