ITEM: TIMESTEP
70000
ITEM: NUMBER OF ATOMS
14
ITEM: BOX BOUNDS pp pp pp
0 240
0 240
0 240
ITEM: ATOMS id type x y z c_myKE c_myPE
719572 1 156.999 104.207 95.8032 0.0274289 -6.21584
751080 1 120.175 82.3065 112.053 0.194687 -6.11815
270277 1 110.55 51.2919 126.455 0.0350681 -6.30904
853807 1 140.486 97.959 162.927 0.0771148 -6.85457
853886 1 137.488 101.184 162.671 0.0541026 -6.89017
853333 1 159.532 78.51 164.57 0.207082 -6.089
200748 1 78.2311 86.6691 91.0212 0.159987 -6.45214
707239 1 115.469 122.652 93.0234 0.0860462 -6.56429
233318 1 110.293 110.129 107.188 0.115236 -6.68743
252125 1 134.557 91.594 118.531 0.0661018 -5.97571
335568 1 142.234 99.5552 158.401 0.146168 -6.72184
335567 1 139.027 102.677 158.27 0.101482 -7.50903
342608 1 143.571 125.929 163.063 0.176157 -6.35929
367659 1 179.294 105.9 175.967 0.0754809 -6.46502
