ITEM: TIMESTEP
66000
ITEM: NUMBER OF ATOMS
20
ITEM: BOX BOUNDS pp pp pp
0 240
0 240
0 240
ITEM: ATOMS id type x y z
181885 1 132.75 99.75 84.75
201475 1 102.75 114.75 93.75
207393 1 96.75 96.75 96.75
220115 1 102.75 93.75 102.75
220358 1 111.75 102.75 102.75
227083 1 126.75 114.75 105.75
233083 1 126.75 99.75 108.75
239400 1 117.75 96.75 111.75
706279 1 116.25 86.25 92.25
706915 1 104.25 110.25 92.25
706921 1 122.25 110.25 92.25
713002 1 125.25 98.25 95.25
713315 1 104.25 110.25 95.25
713394 1 101.25 113.25 95.25
725806 1 137.25 98.25 101.25
732445 1 134.25 107.25 104.25
732763 1 128.25 119.25 104.25
732767 1 140.25 119.25 104.25
738599 1 116.25 98.25 107.25
745242 1 125.25 107.25 110.25
