ITEM: TIMESTEP
68185
ITEM: NUMBER OF ATOMS
17
ITEM: BOX BOUNDS pp pp pp
0 240
0 240
0 240
ITEM: ATOMS id type x y z c_myKE c_myPE
663244 1 130.994 155.263 65.9422 0 -6.25438
699740 1 184.104 78.7144 86.3018 0 -6.82713
207170 1 146.754 82.3465 98.0243 0 -7.08508
725488 1 143.98 85.0129 98.88 0 -7.31727
724774 1 164.837 54.4185 101.023 0 -6.25272
213488 1 143.102 81.8577 101.676 0 -7.65939
725487 1 142.204 86.1073 100.793 0 -7.27003
213489 1 145.9 85.0106 100.801 0 -7.32023
130289 1 145.351 83.4936 56.0199 0 -6.25499
131412 1 156.865 126.206 56.0189 0 -6.25411
194141 1 185.686 76.9436 88.072 0 -6.54332
719078 1 113.491 84.7733 94.3424 0 -7.36807
207159 1 115.347 86.63 94.3424 0 -7.36984
213479 1 115.347 84.7729 96.1991 0 -7.36872
213638 1 112.26 87.8562 97.4287 0 -6.28708
239972 1 156.859 118.573 110.24 0 -6.25411
258912 1 91.1216 109 119.819 0 -6.25432
