ITEM: TIMESTEP
66000
ITEM: NUMBER OF ATOMS
22
ITEM: BOX BOUNDS pp pp pp
0 240
0 240
0 240
ITEM: ATOMS id type x y z c_myKE c_myPE
726121 1 120.066 107.59 101.167 0.193296 -6.15553
732685 1 134.263 116.927 102.363 0.0516134 -7.7034
732765 1 134.12 119.846 102.396 0.160185 -6.97348
220442 1 122.935 108.958 104.48 0.0445042 -6.5375
739085 1 134.081 117.07 105.621 0.0522484 -7.15461
233462 1 57.3898 113.879 108.449 0.385279 -6.50772
770522 1 124.838 92.9925 123.566 0.023321 -6.30615
809081 1 123.559 99.2678 140.521 0.0244155 -6.59985
815561 1 123.635 102.454 143.499 0.0591842 -6.99516
841326 1 139.142 110.373 158.444 0.158955 -6.69494
214446 1 136.018 123.041 97.704 0.196186 -6.68424
220590 1 86.5029 112.376 100.183 0.0624035 -6.35141
220685 1 132.625 115.162 100.787 0.147867 -7.70294
219232 1 91.0988 57.9191 102.46 0.0392115 -6.81519
732524 1 132.669 112.188 103.885 0.129865 -8.05081
227083 1 128.085 116.793 102.686 0.120015 -7.56106
227005 1 132.722 115.243 103.766 0.414659 -8.18814
239965 1 132.302 115.528 106.965 0.167977 -7.38111
239223 1 64.0353 87.8459 110.21 0.261633 -6.11699
777644 1 129.426 121.798 123.232 0.119696 -6.08481
271228 1 78.6057 90.1279 128.06 0.32258 -6.59182
278117 1 107.019 107.164 131.721 0.522015 -6.42134
