ITEM: TIMESTEP
66113
ITEM: NUMBER OF ATOMS
15
ITEM: BOX BOUNDS pp pp pp
0 240
0 240
0 240
ITEM: ATOMS id type x y z
208193 1 96.75 126.75 96.75
239634 1 99.75 105.75 111.75
239874 1 99.75 114.75 111.75
246192 1 93.75 111.75 114.75
252593 1 96.75 111.75 117.75
668597 1 110.25 113.25 74.25
720034 1 101.25 122.25 98.25
720114 1 101.25 125.25 98.25
726355 1 104.25 119.25 101.25
726356 1 107.25 119.25 101.25
738912 1 95.25 110.25 107.25
738916 1 107.25 110.25 107.25
745631 1 92.25 122.25 110.25
757955 1 104.25 104.25 116.25
777235 1 104.25 107.25 125.25
