ITEM: TIMESTEP
66273
ITEM: NUMBER OF ATOMS
19
ITEM: BOX BOUNDS pp pp pp
0 240
0 240
0 240
ITEM: ATOMS id type x y z
213714 1 99.75 93.75 99.75
220114 1 99.75 93.75 102.75
239724 1 129.75 108.75 111.75
252353 1 96.75 102.75 117.75
258360 1 117.75 87.75 120.75
258668 1 81.75 99.75 120.75
278110 1 87.75 108.75 129.75
290750 1 87.75 102.75 135.75
291709 1 84.75 138.75 135.75
329302 1 63.75 108.75 153.75
732194 1 101.25 98.25 104.25
764363 1 128.25 104.25 119.25
771071 1 92.25 116.25 122.25
771396 1 107.25 128.25 122.25
777087 1 140.25 101.25 125.25
783640 1 119.25 107.25 128.25
796588 1 83.25 113.25 134.25
815540 1 59.25 104.25 143.25
822019 1 56.25 107.25 146.25
