ITEM: TIMESTEP
66158
ITEM: NUMBER OF ATOMS
16
ITEM: BOX BOUNDS pp pp pp
0 240
0 240
0 240
ITEM: ATOMS id type x y z c_myKE c_myPE
693878 1 111.699 101.056 85.272 0 -7.40739
700279 1 114.84 101.053 88.4116 0 -7.40068
700358 1 112.043 104.364 88.0707 0 -7.24463
713089 1 146.942 102.262 94.652 0 -6.2546
757151 1 91.4459 70.3708 115.039 0 -6.82341
757230 1 88.1892 73.6262 114.911 0 -6.55125
239396 1 108.964 94.2748 114.772 0 -7.10439
757637 1 106.685 92.4675 118.118 0 -7.2819
264996 1 111.974 91.3797 124.165 0 -6.85909
783395 1 107.345 95.6876 124.689 0 -6.50636
188279 1 113.428 99.4693 86.6811 0 -7.06949
258597 1 108.531 90.3188 118.168 0 -7.79277
751396 1 109.228 92.7959 118.863 0 -8.21258
252039 1 112.426 92.9691 118.467 0 -7.98591
783404 1 132.605 96.2528 132.589 0 -6.25967
316848 1 144.091 121.747 150.475 0 -6.2527
