ITEM: TIMESTEP
67333
ITEM: NUMBER OF ATOMS
16
ITEM: BOX BOUNDS pp pp pp
0 240
0 240
0 240
ITEM: ATOMS id type x y z
238753 1 96.75 72.75 111.75
239870 1 87.75 114.75 111.75
246192 1 93.75 111.75 114.75
251548 1 81.75 72.75 117.75
258274 1 99.75 84.75 120.75
265552 1 93.75 117.75 123.75
271160 1 117.75 87.75 126.75
744114 1 101.25 65.25 110.25
750911 1 92.25 80.25 113.25
751631 1 92.25 107.25 113.25
752832 1 95.25 152.25 113.25
756988 1 83.25 68.25 116.25
757877 1 110.25 101.25 116.25
763863 1 68.25 86.25 119.25
764511 1 92.25 110.25 119.25
777316 1 107.25 110.25 125.25
