ITEM: TIMESTEP
67000
ITEM: NUMBER OF ATOMS
25
ITEM: BOX BOUNDS pp pp pp
0 240
0 240
0 240
ITEM: ATOMS id type x y z c_myKE c_myPE
693401 1 123.181 81.9103 83.1427 0.143359 -6.30612
782994 1 101.064 80.1882 129.873 0.202009 -6.96108
788997 1 110.488 64.2169 132.784 0.257933 -7.06282
297304 1 62.4786 110.837 142.547 0.0474316 -7.32064
303865 1 67.0714 115.099 143.503 0.164927 -7.28069
815782 1 65.5901 110.802 145.596 0.101076 -7.80566
822019 1 53.1694 107.522 149.011 0.0109962 -7.26996
822182 1 62.6267 113.706 148.585 0.239621 -7.25563
834980 1 54.6739 111.748 153.465 0.0302549 -7.42835
322736 1 43.9096 104.066 155.034 0.243656 -6.76008
841381 1 54.3586 115.378 156.676 0.16807 -6.87939
835323 1 128.018 126.359 155.302 0.152649 -6.32443
163571 1 153.697 134.621 72.1741 0.168547 -6.88336
187720 1 118.687 77.5844 84.6684 0.201606 -6.83835
264675 1 101.095 83.4535 126.275 0.318069 -7.16582
277156 1 105.905 69.0612 131.111 0.0841347 -7.11063
809465 1 68.9302 116.817 141.938 0.0694429 -6.74374
309535 1 36.6817 84.8277 145.074 0.140667 -5.6926
303862 1 60.8072 115.541 143.931 0.0468764 -6.22813
316349 1 83.3539 101.024 148.538 0.24529 -6.44596
310182 1 57.9442 109.171 147.461 0.0205253 -7.14449
316505 1 67.5152 109.522 147.044 0.1035 -6.90789
310263 1 64.4442 115.418 147.139 0.0842009 -7.89153
834736 1 42.2417 105.674 157.087 0.0463576 -7.18704
342177 1 43.3786 110.189 161.325 0.0757855 -6.3765
