ITEM: TIMESTEP
65259
ITEM: NUMBER OF ATOMS
21
ITEM: BOX BOUNDS pp pp pp
0 240
0 240
0 240
ITEM: ATOMS id type x y z
137784 1 69.75 126.75 63.75
169866 1 75.75 129.75 78.75
170277 1 108.75 144.75 78.75
176678 1 111.75 144.75 81.75
195239 1 114.75 120.75 90.75
201556 1 105.75 117.75 93.75
202106 1 75.75 138.75 93.75
257808 1 141.75 66.75 120.75
259629 1 84.75 135.75 120.75
554041 1 122.25 137.25 20.25
675719 1 116.25 140.25 77.25
675798 1 113.25 143.25 77.25
682198 1 113.25 143.25 80.25
682199 1 116.25 143.25 80.25
688771 1 152.25 149.25 83.25
707156 1 107.25 119.25 92.25
708838 1 113.25 182.25 92.25
713556 1 107.25 119.25 95.25
726917 1 110.25 140.25 101.25
745486 1 137.25 116.25 110.25
751885 1 134.25 116.25 113.25
