ITEM: TIMESTEP
80000
ITEM: NUMBER OF ATOMS
42
ITEM: BOX BOUNDS pp pp pp
0 300
0 300
0 300
ITEM: ATOMS id type x y z
306253 1 156.75 186.75 90.75
336149 1 144.75 183.75 99.75
336760 1 177.75 201.75 99.75
336957 1 168.75 207.75 99.75
346957 1 168.75 207.75 102.75
356457 1 168.75 192.75 105.75
366458 1 171.75 192.75 108.75
376347 1 138.75 189.75 111.75
376359 1 174.75 189.75 111.75
386660 1 177.75 198.75 114.75
396355 1 162.75 189.75 117.75
396363 1 186.75 189.75 117.75
404041 1 120.75 120.75 120.75
406055 1 162.75 180.75 120.75
415041 1 120.75 150.75 123.75
434344 1 129.75 129.75 129.75
454845 1 132.75 144.75 135.75
474148 1 141.75 123.75 141.75
493951 1 150.75 117.75 147.75
495647 1 138.75 168.75 147.75
1307062 1 185.25 212.25 92.25
1325655 1 164.25 170.25 98.25
1346458 1 173.25 194.25 104.25
1347056 1 167.25 212.25 104.25
1366265 1 194.25 188.25 110.25
1366356 1 167.25 191.25 110.25
1366661 1 182.25 200.25 110.25
1374845 1 134.25 146.25 113.25
1375249 1 146.25 158.25 113.25
1376463 1 188.25 194.25 113.25
1376559 1 176.25 197.25 113.25
1395143 1 128.25 155.25 119.25
1396352 1 155.25 191.25 119.25
1396450 1 149.25 194.25 119.25
1435345 1 134.25 161.25 131.25
1436149 1 146.25 185.25 131.25
1444944 1 131.25 149.25 134.25
1463948 1 143.25 119.25 140.25
1464048 1 143.25 122.25 140.25
1484148 1 143.25 125.25 146.25
1485849 1 146.25 176.25 146.25
1503450 1 149.25 104.25 152.25
