ITEM: TIMESTEP
82000
ITEM: NUMBER OF ATOMS
51
ITEM: BOX BOUNDS pp pp pp
0 300
0 300
0 300
ITEM: ATOMS id type x y z
402952 1 153.75 87.75 120.75
453242 1 123.75 96.75 135.75
494748 1 141.75 141.75 147.75
504748 1 141.75 141.75 150.75
544544 1 129.75 135.75 162.75
544643 1 126.75 138.75 162.75
554644 1 129.75 138.75 165.75
574047 1 138.75 120.75 171.75
575442 1 123.75 162.75 171.75
605857 1 168.75 174.75 180.75
634145 1 132.75 123.75 189.75
654143 1 126.75 123.75 195.75
654246 1 135.75 126.75 195.75
664143 1 126.75 123.75 198.75
664145 1 132.75 123.75 198.75
664243 1 126.75 126.75 198.75
664244 1 129.75 126.75 198.75
666030 1 87.75 180.75 198.75
674243 1 126.75 126.75 201.75
674244 1 129.75 126.75 201.75
675163 1 186.75 153.75 201.75
684244 1 129.75 126.75 204.75
713131 1 90.75 93.75 213.75
792841 1 120.75 84.75 237.75
1402851 1 152.25 86.25 122.25
1402951 1 152.25 89.25 122.25
1412952 1 155.25 89.25 125.25
1523537 1 110.25 107.25 158.25
1544442 1 125.25 134.25 164.25
1544642 1 125.25 140.25 164.25
1554641 1 122.25 140.25 167.25
1554742 1 125.25 143.25 167.25
1564543 1 128.25 137.25 170.25
1564642 1 125.25 140.25 170.25
1564741 1 122.25 143.25 170.25
1574641 1 122.25 140.25 173.25
1605756 1 167.25 173.25 182.25
1634144 1 131.25 125.25 191.25
1634145 1 134.25 125.25 191.25
1644044 1 131.25 122.25 194.25
1644143 1 128.25 125.25 194.25
1644144 1 131.25 125.25 194.25
1644145 1 134.25 125.25 194.25
1644146 1 137.25 125.25 194.25
1654143 1 128.25 125.25 197.25
1654145 1 134.25 125.25 197.25
1664142 1 125.25 125.25 200.25
1664244 1 131.25 128.25 200.25
1685252 1 155.25 158.25 206.25
1705348 1 143.25 161.25 212.25
1914537 1 110.25 137.25 275.25
