ITEM: TIMESTEP
78158
ITEM: NUMBER OF ATOMS
25
ITEM: BOX BOUNDS pp pp pp
0 300
0 300
0 300
ITEM: ATOMS id type x y z
344444 1 129.75 132.75 102.75
394545 1 132.75 135.75 117.75
395240 1 117.75 156.75 117.75
404741 1 120.75 141.75 120.75
415048 1 141.75 150.75 123.75
424646 1 135.75 138.75 126.75
424745 1 132.75 141.75 126.75
424747 1 138.75 141.75 126.75
474440 1 117.75 132.75 141.75
515236 1 105.75 156.75 153.75
525033 1 96.75 150.75 156.75
1384535 1 104.25 137.25 116.25
1384844 1 131.25 146.25 116.25
1404141 1 122.25 125.25 122.25
1404647 1 140.25 140.25 122.25
1414732 1 95.25 143.25 125.25
1424339 1 116.25 131.25 128.25
1424547 1 140.25 137.25 128.25
1424644 1 131.25 140.25 128.25
1424844 1 131.25 146.25 128.25
1434837 1 110.25 146.25 131.25
1435037 1 110.25 152.25 131.25
1444044 1 131.25 122.25 134.25
1454734 1 101.25 143.25 137.25
1474144 1 131.25 125.25 143.25
