ITEM: TIMESTEP
83000
ITEM: NUMBER OF ATOMS
59
ITEM: BOX BOUNDS pp pp pp
0 300
0 300
0 300
ITEM: ATOMS id type x y z
377042 1 123.75 210.75 111.75
397428 1 81.75 222.75 117.75
408127 1 78.75 243.75 120.75
424746 1 135.75 141.75 126.75
444846 1 135.75 144.75 132.75
447028 1 81.75 210.75 132.75
455253 1 156.75 156.75 135.75
456935 1 102.75 207.75 135.75
457722 1 63.75 231.75 135.75
464746 1 135.75 141.75 138.75
464750 1 147.75 141.75 138.75
465651 1 150.75 168.75 138.75
467730 1 87.75 231.75 138.75
468323 1 66.75 249.75 138.75
474546 1 135.75 135.75 141.75
475148 1 141.75 153.75 141.75
477829 1 84.75 234.75 141.75
477926 1 75.75 237.75 141.75
484844 1 129.75 144.75 144.75
485644 1 129.75 168.75 144.75
485649 1 144.75 168.75 144.75
485947 1 138.75 177.75 144.75
487231 1 90.75 216.75 144.75
488527 1 78.75 255.75 144.75
495946 1 135.75 177.75 147.75
496626 1 75.75 198.75 147.75
505649 1 144.75 168.75 150.75
526738 1 111.75 201.75 156.75
536935 1 102.75 207.75 159.75
537035 1 102.75 210.75 159.75
587134 1 99.75 213.75 174.75
1377728 1 83.25 233.25 113.25
1414742 1 125.25 143.25 125.25
1416925 1 74.25 209.25 125.25
1417329 1 86.25 221.25 125.25
1437043 1 128.25 212.25 131.25
1437129 1 86.25 215.25 131.25
1444742 1 125.25 143.25 134.25
1444842 1 125.25 146.25 134.25
1446630 1 89.25 200.25 134.25
1447028 1 83.25 212.25 134.25
1447823 1 68.25 236.25 134.25
1454846 1 137.25 146.25 137.25
1457725 1 74.25 233.25 137.25
1464744 1 131.25 143.25 140.25
1465549 1 146.25 167.25 140.25
1475645 1 134.25 170.25 143.25
1476723 1 68.25 203.25 143.25
1477929 1 86.25 239.25 143.25
1478025 1 74.25 242.25 143.25
1485540 1 119.25 167.25 146.25
1487030 1 89.25 212.25 146.25
1488426 1 77.25 254.25 146.25
1496626 1 77.25 200.25 149.25
1517529 1 86.25 227.25 155.25
1526439 1 116.25 194.25 158.25
1537332 1 95.25 221.25 161.25
1557232 1 95.25 218.25 167.25
1567230 1 89.25 218.25 170.25
