ITEM: TIMESTEP
85000
ITEM: NUMBER OF ATOMS
41
ITEM: BOX BOUNDS pp pp pp
0 300
0 300
0 300
ITEM: ATOMS id type x y z
453741 1 120.75 111.75 135.75
464631 1 90.75 138.75 138.75
473947 1 138.75 117.75 141.75
495242 1 123.75 156.75 147.75
534750 1 147.75 141.75 159.75
585550 1 147.75 165.75 174.75
616164 1 189.75 183.75 183.75
685757 1 168.75 171.75 204.75
686466 1 195.75 192.75 204.75
695857 1 168.75 174.75 207.75
716064 1 189.75 180.75 213.75
716260 1 177.75 186.75 213.75
716368 1 201.75 189.75 213.75
726765 1 192.75 201.75 216.75
736167 1 198.75 183.75 219.75
736262 1 183.75 186.75 219.75
736269 1 204.75 186.75 219.75
736769 1 204.75 201.75 219.75
766171 1 210.75 183.75 228.75
857170 1 207.75 213.75 255.75
867269 1 204.75 216.75 258.75
1413942 1 125.25 119.25 125.25
1433544 1 131.25 107.25 131.25
1443644 1 131.25 110.25 134.25
1454833 1 98.25 146.25 137.25
1475141 1 122.25 155.25 143.25
1505040 1 119.25 152.25 152.25
1585454 1 161.25 164.25 176.25
1595451 1 152.25 164.25 179.25
1605657 1 170.25 170.25 182.25
1605757 1 170.25 173.25 182.25
1645558 1 173.25 167.25 194.25
1666466 1 197.25 194.25 200.25
1666870 1 209.25 206.25 200.25
1676670 1 209.25 200.25 203.25
1716255 1 164.25 188.25 215.25
1716266 1 197.25 188.25 215.25
1746167 1 200.25 185.25 224.25
1746269 1 206.25 188.25 224.25
1746563 1 188.25 197.25 224.25
1876477 1 230.25 194.25 263.25
