ITEM: TIMESTEP
83000
ITEM: NUMBER OF ATOMS
34
ITEM: BOX BOUNDS pp pp pp
0 300
0 300
0 300
ITEM: ATOMS id type x y z
443941 1 120.75 117.75 132.75
444545 1 132.75 135.75 132.75
463637 1 108.75 108.75 138.75
464441 1 120.75 132.75 138.75
474238 1 111.75 126.75 141.75
514742 1 123.75 141.75 153.75
553840 1 117.75 114.75 165.75
583955 1 162.75 117.75 174.75
594154 1 159.75 123.75 177.75
614060 1 177.75 120.75 183.75
644164 1 189.75 123.75 192.75
653558 1 171.75 105.75 195.75
654164 1 189.75 123.75 195.75
664062 1 183.75 120.75 198.75
664164 1 189.75 123.75 198.75
754072 1 213.75 120.75 225.75
754573 1 216.75 135.75 225.75
824369 1 204.75 129.75 246.75
844673 1 216.75 138.75 252.75
1433840 1 119.25 116.25 131.25
1434044 1 131.25 122.25 131.25
1443337 1 110.25 101.25 134.25
1453336 1 107.25 101.25 137.25
1454249 1 146.25 128.25 137.25
1463640 1 119.25 110.25 140.25
1464145 1 134.25 125.25 140.25
1484133 1 98.25 125.25 146.25
1534550 1 149.25 137.25 161.25
1584061 1 182.25 122.25 176.25
1584153 1 158.25 125.25 176.25
1613956 1 167.25 119.25 185.25
1734066 1 197.25 122.25 221.25
1804175 1 224.25 125.25 242.25
1814966 1 197.25 149.25 245.25
