ITEM: TIMESTEP
81185
ITEM: NUMBER OF ATOMS
36
ITEM: BOX BOUNDS pp pp pp
0 300
0 300
0 300
ITEM: ATOMS id type x y z c_myKE c_myPE
1343361 1 183.304 97.164 100.373 0 -6.25347
1354336 1 103.518 129.008 103.554 0 -7.51745
1364337 1 106.842 128.961 106.862 0 -6.5694
1364436 1 103.471 132.329 106.863 0 -6.57219
1373746 1 135.456 109.909 109.937 0 -6.25179
1423360 1 181.98 99.2169 124.566 0 -6.54582
1433361 1 185.237 99.0924 127.82 0 -6.81975
1454977 1 236.284 150.156 135.465 0 -6.25391
1494748 1 140.611 134.205 144.992 0 -6.82393
494448 1 143.928 130.819 148.382 0 -6.60019
1573357 1 170.549 99.0847 173.743 0 -6.8207
1583358 1 173.804 99.208 177.001 0 -6.54416
1575556 1 169.295 169.275 175.672 0 -6.25523
1594074 1 226.825 119.66 180.276 0 -6.54181
1584362 1 186.679 130.86 178.874 0 -6.59212
1693859 1 176.919 113.109 213.953 0 -6.25212
324643 1 126.237 137.041 92.317 0 -6.8502
324742 1 123 140.278 92.3071 0 -6.94283
324841 1 121.122 142.155 91.2208 0 -6.85232
364464 1 191.285 132.604 105.153 0 -6.25421
1373472 1 221.938 101.96 111.538 0 -6.25367
425140 1 116.663 152.998 124.328 0 -6.81293
425239 1 113.407 156.247 124.185 0 -6.55704
415431 1 87.9598 164.496 123.054 0 -6.25423
1424139 1 111.419 122.932 126.16 0 -6.54299
1424238 1 111.535 126.187 129.419 0 -6.82356
454042 1 121.092 117.879 135.8 0 -6.25569
455141 1 116.691 152.968 137.079 0 -6.26185
1484348 1 142.407 132.46 146.736 0 -6.97606
545872 1 218.737 177.265 162.574 0 -6.25385
554148 1 142.291 122.928 167.631 0 -6.54583
564248 1 142.167 126.189 170.881 0 -6.82053
574463 1 188.165 132.698 173.993 0 -6.5423
593665 1 194.466 105.129 178.518 0 -6.25233
594074 1 225.243 117.89 178.507 0 -6.8219
584462 1 184.859 132.722 177.349 0 -7.59099
