ITEM: TIMESTEP
84000
ITEM: NUMBER OF ATOMS
69
ITEM: BOX BOUNDS pp pp pp
0 300
0 300
0 300
ITEM: ATOMS id type x y z
404041 1 120.75 120.75 120.75
444042 1 123.75 120.75 132.75
454049 1 144.75 120.75 135.75
454243 1 126.75 126.75 135.75
454668 1 201.75 138.75 135.75
464144 1 129.75 123.75 138.75
464170 1 207.75 123.75 138.75
474470 1 207.75 132.75 141.75
484667 1 198.75 138.75 144.75
574649 1 144.75 138.75 171.75
584351 1 150.75 129.75 174.75
584847 1 138.75 144.75 174.75
614161 1 180.75 123.75 183.75
623855 1 162.75 114.75 186.75
664567 1 198.75 135.75 198.75
695071 1 210.75 150.75 207.75
705073 1 216.75 150.75 210.75
705468 1 201.75 162.75 210.75
715168 1 201.75 153.75 213.75
715268 1 201.75 156.75 213.75
724874 1 219.75 144.75 216.75
734168 1 201.75 123.75 219.75
744459 1 174.75 132.75 222.75
744468 1 201.75 132.75 222.75
744671 1 210.75 138.75 222.75
744970 1 207.75 147.75 222.75
754660 1 177.75 138.75 225.75
754973 1 216.75 147.75 225.75
764467 1 198.75 132.75 228.75
764665 1 192.75 138.75 228.75
774161 1 180.75 123.75 231.75
774464 1 189.75 132.75 231.75
794766 1 195.75 141.75 237.75
1434442 1 125.25 134.25 131.25
1444042 1 125.25 122.25 134.25
1444249 1 146.25 128.25 134.25
1444442 1 125.25 134.25 134.25
1454042 1 125.25 122.25 137.25
1464070 1 209.25 122.25 140.25
1474269 1 206.25 128.25 143.25
1504065 1 194.25 122.25 152.25
1514353 1 158.25 131.25 155.25
1544153 1 158.25 125.25 164.25
1563859 1 176.25 116.25 170.25
1564464 1 191.25 134.25 170.25
1564465 1 194.25 134.25 170.25
1574060 1 179.25 122.25 173.25
1575252 1 155.25 158.25 173.25
1674974 1 221.25 149.25 203.25
1704656 1 167.25 140.25 212.25
1704771 1 212.25 143.25 212.25
1714968 1 203.25 149.25 215.25
1724262 1 185.25 128.25 218.25
1724567 1 200.25 137.25 218.25
1724872 1 215.25 146.25 218.25
1734268 1 203.25 128.25 221.25
1734269 1 206.25 128.25 221.25
1734470 1 209.25 134.25 221.25
1744268 1 203.25 128.25 224.25
1744473 1 218.25 134.25 224.25
1744567 1 200.25 137.25 224.25
1744971 1 212.25 149.25 224.25
1754770 1 209.25 143.25 227.25
1754868 1 203.25 146.25 227.25
1764465 1 194.25 134.25 230.25
1764762 1 185.25 143.25 230.25
1773971 1 212.25 119.25 233.25
1774764 1 191.25 143.25 233.25
1794568 1 203.25 137.25 239.25
