ITEM: TIMESTEP
81000
ITEM: NUMBER OF ATOMS
43
ITEM: BOX BOUNDS pp pp pp
0 300
0 300
0 300
ITEM: ATOMS id type x y z
374439 1 114.75 132.75 111.75
445853 1 156.75 174.75 132.75
446048 1 141.75 180.75 132.75
456045 1 132.75 180.75 135.75
476443 1 126.75 192.75 141.75
485847 1 138.75 174.75 144.75
505748 1 141.75 171.75 150.75
505944 1 129.75 177.75 150.75
506150 1 147.75 183.75 150.75
515752 1 153.75 171.75 153.75
515850 1 147.75 174.75 153.75
525651 1 150.75 168.75 156.75
526055 1 162.75 180.75 156.75
536250 1 147.75 186.75 159.75
555644 1 129.75 168.75 165.75
555748 1 141.75 171.75 165.75
566047 1 138.75 180.75 168.75
616248 1 141.75 186.75 183.75
1325953 1 158.25 179.25 98.25
1355145 1 134.25 155.25 107.25
1365852 1 155.25 176.25 110.25
1375450 1 149.25 164.25 113.25
1415846 1 137.25 176.25 125.25
1446148 1 143.25 185.25 134.25
1466554 1 161.25 197.25 140.25
1476548 1 143.25 197.25 143.25
1484847 1 140.25 146.25 146.25
1495751 1 152.25 173.25 149.25
1496250 1 149.25 188.25 149.25
1505551 1 152.25 167.25 152.25
1505955 1 164.25 179.25 152.25
1515551 1 152.25 167.25 155.25
1515644 1 131.25 170.25 155.25
1515950 1 149.25 179.25 155.25
1525443 1 128.25 164.25 158.25
1526448 1 143.25 194.25 158.25
1545339 1 116.25 161.25 164.25
1545847 1 140.25 176.25 164.25
1555245 1 134.25 158.25 167.25
1556144 1 131.25 185.25 167.25
1556246 1 137.25 188.25 167.25
1575441 1 122.25 164.25 173.25
1585649 1 146.25 170.25 176.25
