ITEM: TIMESTEP
81000
ITEM: NUMBER OF ATOMS
42
ITEM: BOX BOUNDS pp pp pp
0 300
0 300
0 300
ITEM: ATOMS id type x y z
404543 1 126.75 135.75 120.75
424343 1 126.75 129.75 126.75
485849 1 144.75 174.75 144.75
494943 1 126.75 147.75 147.75
506550 1 147.75 195.75 150.75
535862 1 183.75 174.75 159.75
546173 1 216.75 183.75 162.75
555761 1 180.75 171.75 165.75
555861 1 180.75 174.75 165.75
566060 1 177.75 180.75 168.75
576259 1 174.75 186.75 171.75
576261 1 180.75 186.75 171.75
585366 1 195.75 159.75 174.75
585865 1 192.75 174.75 174.75
605764 1 189.75 171.75 180.75
606457 1 168.75 192.75 180.75
615766 1 195.75 171.75 183.75
615864 1 189.75 174.75 183.75
1394243 1 128.25 128.25 119.25
1465069 1 206.25 152.25 140.25
1474945 1 134.25 149.25 143.25
1495850 1 149.25 176.25 149.25
1504443 1 128.25 134.25 152.25
1506060 1 179.25 182.25 152.25
1514642 1 125.25 140.25 155.25
1514843 1 128.25 146.25 155.25
1514941 1 122.25 149.25 155.25
1525463 1 188.25 164.25 158.25
1526166 1 197.25 185.25 158.25
1535056 1 167.25 152.25 161.25
1544447 1 140.25 134.25 164.25
1546264 1 191.25 188.25 164.25
1554647 1 140.25 140.25 167.25
1556068 1 203.25 182.25 167.25
1556168 1 203.25 185.25 167.25
1556462 1 185.25 194.25 167.25
1565561 1 182.25 167.25 170.25
1566364 1 191.25 191.25 170.25
1566459 1 176.25 194.25 170.25
1576953 1 158.25 209.25 173.25
1586260 1 179.25 188.25 176.25
1606066 1 197.25 182.25 182.25
