ITEM: TIMESTEP
78000
ITEM: NUMBER OF ATOMS
51
ITEM: BOX BOUNDS pp pp pp
0 300
0 300
0 300
ITEM: ATOMS id type x y z
364246 1 135.75 126.75 108.75
384647 1 138.75 138.75 114.75
404041 1 120.75 120.75 120.75
414158 1 171.75 123.75 123.75
424651 1 150.75 138.75 126.75
433854 1 159.75 114.75 129.75
444156 1 165.75 123.75 132.75
444251 1 150.75 126.75 132.75
444256 1 165.75 126.75 132.75
444351 1 150.75 129.75 132.75
444453 1 156.75 132.75 132.75
446544 1 129.75 195.75 132.75
447045 1 132.75 210.75 132.75
454450 1 147.75 132.75 135.75
456243 1 126.75 186.75 135.75
456447 1 138.75 192.75 135.75
456544 1 129.75 195.75 135.75
464154 1 159.75 123.75 138.75
464464 1 189.75 132.75 138.75
464653 1 156.75 138.75 138.75
466141 1 120.75 183.75 138.75
466642 1 123.75 198.75 138.75
473955 1 162.75 117.75 141.75
474456 1 165.75 132.75 141.75
476642 1 123.75 198.75 141.75
484654 1 159.75 138.75 144.75
486141 1 120.75 183.75 144.75
515947 1 138.75 177.75 153.75
1353061 1 182.25 92.25 107.25
1363160 1 179.25 95.25 110.25
1394852 1 155.25 146.25 119.25
1404143 1 128.25 125.25 122.25
1434451 1 152.25 134.25 131.25
1444151 1 152.25 125.25 134.25
1454254 1 161.25 128.25 137.25
1454352 1 155.25 131.25 137.25
1454358 1 173.25 131.25 137.25
1463249 1 146.25 98.25 140.25
1464249 1 146.25 128.25 140.25
1466843 1 128.25 206.25 140.25
1474458 1 173.25 134.25 143.25
1476142 1 125.25 185.25 143.25
1484156 1 167.25 125.25 146.25
1484651 1 152.25 140.25 146.25
1486142 1 125.25 185.25 146.25
1486242 1 125.25 188.25 146.25
1486646 1 137.25 200.25 146.25
1494356 1 167.25 131.25 149.25
1505548 1 143.25 167.25 152.25
1514058 1 173.25 122.25 155.25
1526045 1 134.25 182.25 158.25
