ITEM: TIMESTEP
82000
ITEM: NUMBER OF ATOMS
42
ITEM: BOX BOUNDS pp pp pp
0 300
0 300
0 300
ITEM: ATOMS id type x y z
414043 1 126.75 120.75 123.75
444138 1 111.75 123.75 132.75
454237 1 108.75 126.75 135.75
464546 1 135.75 135.75 138.75
514040 1 117.75 120.75 153.75
544144 1 129.75 123.75 162.75
544145 1 132.75 123.75 162.75
655950 1 147.75 177.75 195.75
695749 1 144.75 171.75 207.75
696657 1 168.75 198.75 207.75
697354 1 159.75 219.75 207.75
706554 1 159.75 195.75 210.75
706556 1 165.75 195.75 210.75
706755 1 162.75 201.75 210.75
706956 1 165.75 207.75 210.75
716855 1 162.75 204.75 213.75
846051 1 150.75 180.75 252.75
1464438 1 113.25 134.25 140.25
1483451 1 152.25 104.25 146.25
1484438 1 113.25 134.25 146.25
1494245 1 134.25 128.25 149.25
1494342 1 125.25 131.25 149.25
1504141 1 122.25 125.25 152.25
1504240 1 119.25 128.25 152.25
1504241 1 122.25 128.25 152.25
1514244 1 131.25 128.25 155.25
1514543 1 128.25 137.25 155.25
1523852 1 155.25 116.25 158.25
1524241 1 122.25 128.25 158.25
1533254 1 161.25 98.25 161.25
1554144 1 131.25 125.25 167.25
1575147 1 140.25 155.25 173.25
1585248 1 143.25 158.25 176.25
1687055 1 164.25 212.25 206.25
1697157 1 170.25 215.25 209.25
1706454 1 161.25 194.25 212.25
1706456 1 167.25 194.25 212.25
1706457 1 170.25 194.25 212.25
1716555 1 164.25 197.25 215.25
1756555 1 164.25 197.25 227.25
1765857 1 170.25 176.25 230.25
1786452 1 155.25 194.25 236.25
