ITEM: TIMESTEP
80000
ITEM: NUMBER OF ATOMS
67
ITEM: BOX BOUNDS pp pp pp
0 300
0 300
0 300
ITEM: ATOMS id type x y z
355743 1 126.75 171.75 105.75
404041 1 120.75 120.75 120.75
405047 1 138.75 150.75 120.75
414751 1 150.75 141.75 123.75
425049 1 144.75 150.75 126.75
425944 1 129.75 177.75 126.75
444647 1 138.75 138.75 132.75
454548 1 141.75 135.75 135.75
455942 1 123.75 177.75 135.75
476445 1 132.75 192.75 141.75
486744 1 129.75 201.75 144.75
486845 1 132.75 204.75 144.75
493545 1 132.75 105.75 147.75
496544 1 129.75 195.75 147.75
504040 1 117.75 120.75 150.75
506043 1 126.75 180.75 150.75
506447 1 138.75 192.75 150.75
514338 1 111.75 129.75 153.75
516747 1 138.75 201.75 153.75
524139 1 114.75 123.75 156.75
524736 1 105.75 141.75 156.75
526044 1 129.75 180.75 156.75
534437 1 108.75 132.75 159.75
545945 1 132.75 177.75 162.75
556240 1 117.75 186.75 165.75
566344 1 129.75 189.75 168.75
1365643 1 128.25 170.25 110.25
1394946 1 137.25 149.25 119.25
1404544 1 131.25 137.25 122.25
1404649 1 146.25 140.25 122.25
1414748 1 143.25 143.25 125.25
1424545 1 134.25 137.25 128.25
1424748 1 143.25 143.25 128.25
1426741 1 122.25 203.25 128.25
1436841 1 122.25 206.25 131.25
1454244 1 131.25 128.25 137.25
1457850 1 149.25 236.25 137.25
1464347 1 140.25 131.25 140.25
1464348 1 143.25 131.25 140.25
1468044 1 131.25 242.25 140.25
1474239 1 116.25 128.25 143.25
1474547 1 140.25 137.25 143.25
1476544 1 131.25 197.25 143.25
1486343 1 128.25 191.25 146.25
1496144 1 131.25 185.25 149.25
1496240 1 119.25 188.25 149.25
1504037 1 110.25 122.25 152.25
1504538 1 113.25 137.25 152.25
1504635 1 104.25 140.25 152.25
1506040 1 119.25 182.25 152.25
1506138 1 113.25 185.25 152.25
1506247 1 140.25 188.25 152.25
1506545 1 134.25 197.25 152.25
1506644 1 131.25 200.25 152.25
1514438 1 113.25 134.25 155.25
1516545 1 134.25 197.25 155.25
1516845 1 134.25 206.25 155.25
1526345 1 134.25 191.25 158.25
1533937 1 110.25 119.25 161.25
1534340 1 119.25 131.25 161.25
1534535 1 104.25 137.25 161.25
1543937 1 110.25 119.25 164.25
1545938 1 113.25 179.25 164.25
1546044 1 131.25 182.25 164.25
1556545 1 134.25 197.25 167.25
1556946 1 137.25 209.25 167.25
1586145 1 134.25 185.25 176.25
