ITEM: TIMESTEP
79229
ITEM: NUMBER OF ATOMS
47
ITEM: BOX BOUNDS pp pp pp
0 300
0 300
0 300
ITEM: ATOMS id type x y z
304737 1 108.75 141.75 90.75
325547 1 138.75 165.75 96.75
395847 1 138.75 174.75 117.75
435038 1 111.75 150.75 129.75
484859 1 174.75 144.75 144.75
484956 1 165.75 147.75 144.75
484957 1 168.75 147.75 144.75
494957 1 168.75 147.75 147.75
564853 1 156.75 144.75 168.75
583152 1 153.75 93.75 174.75
583153 1 156.75 93.75 174.75
583251 1 150.75 96.75 174.75
583252 1 153.75 96.75 174.75
584356 1 165.75 129.75 174.75
584357 1 168.75 129.75 174.75
594356 1 165.75 129.75 177.75
594456 1 165.75 132.75 177.75
594457 1 168.75 132.75 177.75
594556 1 165.75 135.75 177.75
603765 1 192.75 111.75 180.75
604455 1 162.75 132.75 180.75
604456 1 165.75 132.75 180.75
614455 1 162.75 132.75 183.75
634353 1 156.75 129.75 189.75
634452 1 153.75 132.75 189.75
634551 1 150.75 135.75 189.75
644552 1 153.75 135.75 192.75
1266258 1 173.25 188.25 80.25
1276257 1 170.25 188.25 83.25
1286256 1 167.25 188.25 86.25
1335847 1 140.25 176.25 101.25
1403553 1 158.25 107.25 122.25
1405543 1 128.25 167.25 122.25
1414744 1 131.25 143.25 125.25
1415443 1 128.25 164.25 125.25
1415542 1 125.25 167.25 125.25
1425652 1 155.25 170.25 128.25
1474956 1 167.25 149.25 143.25
1484857 1 170.25 146.25 146.25
1573251 1 152.25 98.25 173.25
1574256 1 167.25 128.25 173.25
1583052 1 155.25 92.25 176.25
1584255 1 164.25 128.25 176.25
1584356 1 167.25 131.25 176.25
1594355 1 164.25 131.25 179.25
1604354 1 161.25 131.25 182.25
1604455 1 164.25 134.25 182.25
