ITEM: TIMESTEP
80000
ITEM: NUMBER OF ATOMS
42
ITEM: BOX BOUNDS pp pp pp
0 300
0 300
0 300
ITEM: ATOMS id type x y z c_myKE c_myPE
1334634 1 96.9481 137.399 99.1856 0.00245511 -7.78439
1334633 1 94.2709 140.924 99.3326 0.033244 -7.34467
354632 1 92.6256 138.668 103.57 0.272312 -7.97558
1344632 1 90.7186 140.326 101.99 0.0774837 -7.54609
354735 1 95.9155 141.929 103.62 0.0240095 -6.91255
1354633 1 94.0232 140.374 105.287 0.324549 -7.53498
1375242 1 124.876 157.765 108.373 0.321166 -6.07184
444459 1 175.844 131.276 129.173 0.221756 -6.57996
1425035 1 102.203 156.61 128.606 0.136144 -7.60335
1445035 1 102.75 153.524 132.584 0.0137565 -6.86924
435037 1 105.583 153.953 131.028 0.0855925 -7.54792
1445237 1 108.313 158.091 131.292 0.249299 -7.88676
1435236 1 103.683 160.474 130.49 0.0367229 -7.41163
1444276 1 233.018 128.209 134.491 0.043263 -7.41111
1445136 1 104.949 157.803 134.358 0.0956716 -7.37117
1454277 1 236.091 127.892 137.306 0.0306808 -7.14984
1454376 1 233.04 130.89 137.282 0.0945259 -6.97628
1454977 1 236.384 148.16 137.407 0.0484739 -6.27413
1474140 1 118.541 122.899 143.439 0.0867011 -6.23945
1505568 1 207.619 166.194 151.374 0.157847 -6.91601
1525960 1 183.638 183.134 159.67 0.0441631 -6.49768
1545661 1 186.461 173.678 162.933 0.0240025 -6.88065
1555864 1 186.263 170.393 166.162 0.103457 -7.25964
1545660 1 183.274 173.735 165.855 0.114313 -6.76268
1545666 1 199.446 173.757 167.691 0.177904 -5.9766
1556054 1 163.164 183.282 167.302 0.0658293 -6.63043
583454 1 163.94 99.289 176.968 0.113749 -6.8645
1586859 1 179.042 211.202 178.862 0.0855152 -6.42785
285631 1 86.1971 167.696 81.7642 0.198008 -6.66227
383972 1 216.661 113.423 111.497 0.0645942 -6.90108
385244 1 129.575 156.341 113.455 0.0117152 -6.45752
433929 1 79.7527 116.664 127.487 0.0856347 -6.45544
425550 1 148.742 165.866 126.363 0.0455443 -6.70091
1455236 1 102.313 158.334 134.064 0.125189 -7.81689
454477 1 234.545 132.794 135.761 0.275747 -6.83696
474878 1 237.683 143.256 141.892 0.147302 -7.01436
496560 1 178.777 197.822 145.312 0.178958 -5.74775
514768 1 204.112 140.358 154.843 0.261656 -7.05768
524767 1 201.022 140.445 157.978 0.087391 -7.02923
536067 1 197.252 175.485 165.965 0.305683 -6.3563
555446 1 134.107 162.66 167.814 0.106236 -6.45988
755057 1 167.682 149.812 231.414 0.322127 -6.8511
