ITEM: TIMESTEP
82000
ITEM: NUMBER OF ATOMS
45
ITEM: BOX BOUNDS pp pp pp
0 300
0 300
0 300
ITEM: ATOMS id type x y z
113969 1 204.75 117.75 33.75
124167 1 198.75 123.75 36.75
134471 1 210.75 132.75 39.75
163869 1 204.75 114.75 48.75
163968 1 201.75 117.75 48.75
203664 1 189.75 108.75 60.75
214061 1 180.75 120.75 63.75
274158 1 171.75 123.75 81.75
274163 1 186.75 123.75 81.75
304257 1 168.75 126.75 90.75
393453 1 156.75 102.75 117.75
404249 1 144.75 126.75 120.75
423650 1 147.75 108.75 126.75
423855 1 162.75 114.75 126.75
423950 1 147.75 117.75 126.75
424049 1 144.75 120.75 126.75
424148 1 141.75 123.75 126.75
434050 1 147.75 120.75 129.75
434246 1 135.75 126.75 129.75
454045 1 132.75 120.75 135.75
454151 1 150.75 123.75 135.75
473952 1 153.75 117.75 141.75
523962 1 183.75 117.75 156.75
554163 1 186.75 123.75 165.75
554164 1 189.75 123.75 165.75
604259 1 174.75 126.75 180.75
1144370 1 209.25 131.25 44.25
1144569 1 206.25 137.25 44.25
1153167 1 200.25 95.25 47.25
1154172 1 215.25 125.25 47.25
1164273 1 218.25 128.25 50.25
1224162 1 185.25 125.25 68.25
1233761 1 182.25 113.25 71.25
1394051 1 152.25 122.25 119.25
1403846 1 137.25 116.25 122.25
1404250 1 149.25 128.25 122.25
1414646 1 137.25 140.25 125.25
1423949 1 146.25 119.25 128.25
1424049 1 146.25 122.25 128.25
1424151 1 152.25 125.25 128.25
1443549 1 146.25 107.25 134.25
1443950 1 149.25 119.25 134.25
1444049 1 146.25 122.25 134.25
1454049 1 146.25 122.25 137.25
1543761 1 182.25 113.25 164.25
