ITEM: TIMESTEP
81415
ITEM: NUMBER OF ATOMS
76
ITEM: BOX BOUNDS pp pp pp
0 300
0 300
0 300
ITEM: ATOMS id type x y z
415450 1 147.75 162.75 123.75
434434 1 99.75 132.75 129.75
444436 1 105.75 132.75 132.75
454236 1 105.75 126.75 135.75
454338 1 111.75 129.75 135.75
454539 1 114.75 135.75 135.75
464141 1 120.75 123.75 138.75
464243 1 126.75 126.75 138.75
464335 1 102.75 129.75 138.75
465447 1 138.75 162.75 138.75
474338 1 111.75 129.75 141.75
474341 1 120.75 129.75 141.75
474438 1 111.75 132.75 141.75
474736 1 105.75 141.75 141.75
494340 1 117.75 129.75 147.75
513942 1 123.75 117.75 153.75
513943 1 126.75 117.75 153.75
513947 1 138.75 117.75 153.75
514134 1 99.75 123.75 153.75
524344 1 129.75 129.75 156.75
524535 1 102.75 135.75 156.75
533934 1 99.75 117.75 159.75
543543 1 126.75 105.75 162.75
543838 1 111.75 114.75 162.75
544347 1 138.75 129.75 162.75
553832 1 93.75 114.75 165.75
622744 1 129.75 81.75 186.75
632943 1 126.75 87.75 189.75
662640 1 117.75 78.75 198.75
663240 1 117.75 96.75 198.75
672942 1 123.75 87.75 201.75
673042 1 123.75 90.75 201.75
673242 1 123.75 96.75 201.75
673243 1 126.75 96.75 201.75
673343 1 126.75 99.75 201.75
683242 1 123.75 96.75 204.75
712943 1 126.75 87.75 213.75
1393940 1 119.25 119.25 119.25
1414436 1 107.25 134.25 125.25
1424135 1 104.25 125.25 128.25
1424536 1 107.25 137.25 128.25
1424638 1 113.25 140.25 128.25
1434233 1 98.25 128.25 131.25
1444335 1 104.25 131.25 134.25
1454533 1 98.25 137.25 137.25
1454841 1 122.25 146.25 137.25
1464342 1 125.25 131.25 140.25
1474136 1 107.25 125.25 143.25
1474238 1 113.25 128.25 143.25
1474336 1 107.25 131.25 143.25
1483833 1 98.25 116.25 146.25
1484147 1 140.25 125.25 146.25
1493931 1 92.25 119.25 149.25
1494342 1 125.25 131.25 149.25
1503837 1 110.25 116.25 152.25
1503839 1 116.25 116.25 152.25
1513741 1 122.25 113.25 155.25
1524343 1 128.25 131.25 158.25
1533446 1 137.25 104.25 161.25
1603044 1 131.25 92.25 182.25
1622946 1 137.25 89.25 188.25
1643140 1 119.25 95.25 194.25
1643240 1 119.25 98.25 194.25
1643343 1 128.25 101.25 194.25
1652941 1 122.25 89.25 197.25
1653343 1 128.25 101.25 197.25
1654738 1 113.25 143.25 197.25
1661835 1 104.25 56.25 200.25
1663141 1 122.25 95.25 200.25
1663241 1 122.25 98.25 200.25
1673038 1 113.25 92.25 203.25
1674636 1 107.25 140.25 203.25
1683444 1 131.25 104.25 206.25
1703043 1 128.25 92.25 212.25
1723038 1 113.25 92.25 218.25
1732843 1 128.25 86.25 221.25
