ITEM: TIMESTEP
87471
ITEM: NUMBER OF ATOMS
48
ITEM: BOX BOUNDS pp pp pp
0 300
0 300
0 300
ITEM: ATOMS id type x y z c_myKE c_myPE
1207181 1 247.001 220.375 55.6866 0 -6.89086
1197287 1 268.194 221.571 54.4676 0 -6.25358
1226776 1 232.745 207.42 61.7766 0 -8.05697
236877 1 230.848 207.421 63.6719 0 -8.05639
1236976 1 232.744 211.103 65.4584 0 -8.057
1246678 1 237.529 204.418 68.461 0 -6.71729
1288277 1 236.298 255.446 83.1851 0 -6.2553
1316868 1 207.598 212.04 89.5338 0 -6.2564
335454 1 162.963 164.129 99.136 0 -6.37195
1385754 1 163.015 172.319 114.933 0 -6.57428
1386569 1 211.051 202.564 114.951 0 -6.87478
1396670 1 212.242 204.473 116.392 0 -6.76736
1405855 1 164.054 176.931 119.662 0 -7.26945
1416859 1 175.683 207.609 122.682 0 -6.25228
1414945 1 131.392 147.136 124.772 0 -6.79105
435046 1 133.891 150.379 126.193 0 -7.06854
434947 1 133.894 148.556 128.012 0 -7.06586
1436671 1 215.106 202.445 131.064 0 -6.82261
1475826 1 71.6656 178.894 143.779 0 -6.25484
1484637 1 108.695 138.675 146.962 0 -6.25417
1504242 1 124.575 127.775 153.463 0 -6.5459
1504343 1 127.827 131.036 153.338 0 -6.82272
1555634 1 97.1774 170.585 169.298 0 -6.25517
187371 1 215.542 223.202 47.7201 0 -6.25767
1197183 1 253.827 220.013 49.7887 0 -6.92289
197283 1 251.911 222.011 50.8577 0 -7.55078
1207283 1 253.836 223.115 52.857 0 -6.94171
217181 1 245.431 218.601 57.4666 0 -6.54617
327960 1 178.523 244.289 92.3927 0 -6.25394
345458 1 172.156 162.519 100.731 0 -6.32387
395955 1 162.622 178.789 114.717 0 -6.99018
396671 1 213.739 202.702 114.644 0 -7.04953
1395953 1 158.082 177.291 116.63 0 -7.38332
1385854 1 161.194 177.272 116.523 0 -7.71384
1385954 1 162.514 181.585 117.81 0 -7.47344
407069 1 207.268 215.55 117.856 0 -6.2695
415854 1 162.51 178.587 121.098 0 -7.44385
407667 1 202.727 234.842 119.784 0 -6.55123
417668 1 205.981 234.709 123.039 0 -6.82176
1424036 1 103.911 117.935 127.474 0 -6.25542
435152 1 153.082 154.895 130.547 0 -6.5481
435249 1 148.488 159.487 129.531 0 -6.54734
436771 1 213.519 204.22 129.292 0 -6.54204
445662 1 184.916 172.17 132.623 0 -6.25431
473835 1 100.72 111.554 140.238 0 -6.25814
555237 1 107.103 156.223 165.753 0 -6.25583
547047 1 138.924 215.507 164.628 0 -6.54677
547148 1 142.18 218.763 164.506 0 -6.82279
