ITEM: TIMESTEP
81000
ITEM: NUMBER OF ATOMS
27
ITEM: BOX BOUNDS pp pp pp
0 300
0 300
0 300
ITEM: ATOMS id type x y z
315743 1 126.75 171.75 93.75
315843 1 126.75 174.75 93.75
346145 1 132.75 183.75 102.75
375342 1 123.75 159.75 111.75
406354 1 159.75 189.75 120.75
425353 1 156.75 159.75 126.75
425641 1 120.75 168.75 126.75
454046 1 135.75 120.75 135.75
475149 1 144.75 153.75 141.75
475648 1 141.75 168.75 141.75
484847 1 138.75 144.75 144.75
504648 1 141.75 138.75 150.75
1315352 1 155.25 161.25 95.25
1325445 1 134.25 164.25 98.25
1355044 1 131.25 152.25 107.25
1355148 1 143.25 155.25 107.25
1365844 1 131.25 176.25 110.25
1385847 1 140.25 176.25 116.25
1395342 1 125.25 161.25 119.25
1395353 1 158.25 161.25 119.25
1395654 1 161.25 170.25 119.25
1414946 1 137.25 149.25 125.25
1425754 1 161.25 173.25 128.25
1445752 1 155.25 173.25 134.25
1464949 1 146.25 149.25 140.25
1504446 1 137.25 134.25 152.25
1525947 1 140.25 179.25 158.25
