ITEM: TIMESTEP
82000
ITEM: NUMBER OF ATOMS
49
ITEM: BOX BOUNDS pp pp pp
0 300
0 300
0 300
ITEM: ATOMS id type x y z
404041 1 120.75 120.75 120.75
463938 1 111.75 117.75 138.75
464038 1 111.75 120.75 138.75
466444 1 129.75 192.75 138.75
485742 1 123.75 171.75 144.75
485845 1 132.75 174.75 144.75
495548 1 141.75 165.75 147.75
495846 1 135.75 174.75 147.75
505142 1 123.75 153.75 150.75
505441 1 120.75 162.75 150.75
515339 1 114.75 159.75 153.75
515444 1 129.75 162.75 153.75
524943 1 126.75 147.75 156.75
525444 1 129.75 162.75 156.75
525540 1 117.75 165.75 156.75
574842 1 123.75 144.75 171.75
576044 1 129.75 180.75 171.75
684356 1 165.75 129.75 204.75
684556 1 165.75 135.75 204.75
704158 1 171.75 123.75 210.75
763362 1 183.75 99.75 228.75
773058 1 171.75 90.75 231.75
773262 1 183.75 96.75 231.75
793658 1 171.75 108.75 237.75
1424939 1 116.25 149.25 128.25
1465242 1 125.25 158.25 140.25
1473938 1 113.25 119.25 143.25
1475544 1 131.25 167.25 143.25
1495140 1 119.25 155.25 149.25
1495143 1 128.25 155.25 149.25
1515246 1 137.25 158.25 155.25
1525145 1 134.25 155.25 158.25
1525241 1 122.25 158.25 158.25
1525242 1 125.25 158.25 158.25
1525344 1 131.25 161.25 158.25
1525545 1 134.25 167.25 158.25
1525645 1 134.25 170.25 158.25
1525843 1 128.25 176.25 158.25
1535643 1 128.25 170.25 161.25
1545044 1 131.25 152.25 164.25
1565644 1 131.25 170.25 170.25
1585436 1 107.25 164.25 176.25
1664254 1 161.25 128.25 200.25
1673652 1 155.25 110.25 203.25
1753156 1 167.25 95.25 227.25
1763059 1 176.25 92.25 230.25
1763356 1 167.25 101.25 230.25
1763357 1 170.25 101.25 230.25
1763358 1 173.25 101.25 230.25
