ITEM: TIMESTEP
76000
ITEM: NUMBER OF ATOMS
40
ITEM: BOX BOUNDS pp pp pp
0 300
0 300
0 300
ITEM: ATOMS id type x y z c_myKE c_myPE
1253872 1 220.287 112.695 73.4455 0.178948 -6.34504
273966 1 198.068 111.622 76.6141 0.137732 -8.01095
1263766 1 201.383 111.709 76.6299 0.0734773 -7.61675
274066 1 201.269 114.838 76.8288 0.045047 -7.25584
263968 1 204.481 114.744 76.7536 0.0512638 -7.23746
1283967 1 199.499 113.172 81.2355 0.0942479 -7.32817
283964 1 194.971 115.14 80.0063 0.167062 -7.43043
1334248 1 141.994 127.716 97.3838 0.465476 -6.81487
1334347 1 138.564 130.841 97.2484 0.110686 -6.96914
1345051 1 151.275 151.5 99.9872 0.4316 -6.60396
1345152 1 154.514 154.37 99.962 0.0984025 -6.77595
1453050 1 148.109 87.8206 135.637 0.146984 -6.92245
1453146 1 137.225 92.6047 135.047 0.0829703 -7.0445
1474058 1 175.618 121.493 141.554 0.364898 -7.21472
1474159 1 178.783 124.585 141.66 0.169623 -8.25298
1472343 1 127.626 64.7603 143.829 0.0894374 -6.7442
1474061 1 183.487 122.745 143.691 0.00595473 -6.2211
1484160 1 181.946 124.638 145.105 0.232371 -7.41689
1523774 1 226.903 111.87 159.848 0.0327096 -6.6267
1533738 1 109.698 111.689 162.867 0.406001 -6.59526
545346 1 133.979 162.823 162.834 0.0850815 -6.21903
1593436 1 106.205 100.585 180.203 0.0910237 -5.98664
1594055 1 166.213 121.55 181.93 0.36671 -6.92885
263556 1 165.747 101.3 75.3034 0.111734 -6.17668
283867 1 200.998 111.495 79.6708 0.214577 -7.79928
273867 1 197.872 114.857 79.6717 0.485061 -7.74898
374659 1 173.95 140.448 108.473 0.337037 -7.27975
374758 1 172.004 142.198 108.391 0.335442 -7.72261
374658 1 172.104 140.42 110.314 0.0565221 -7.25722
1374658 1 174.017 142.336 110.201 0.0484093 -7.26338
394459 1 177.21 130.799 114.913 0.0857887 -6.14341
442950 1 146.667 83.0481 130.869 0.203026 -6.95324
463147 1 138.806 90.9058 136.983 0.129377 -7.09928
1473047 1 139.028 87.7625 140.548 0.0931735 -6.83821
484160 1 180.518 122.941 143.212 0.254933 -7.28044
484260 1 180.376 126.338 143.333 0.0985177 -7.57605
543839 1 111.326 113.599 164.367 0.205847 -7.45847
554646 1 134.024 137.124 167.53 0.362222 -5.7305
563537 1 105.189 103.99 170.651 0.0932643 -5.95185
1583953 1 161.39 120.155 177.415 0.498619 -6.77991
