ITEM: TIMESTEP
81360
ITEM: NUMBER OF ATOMS
45
ITEM: BOX BOUNDS pp pp pp
0 300
0 300
0 300
ITEM: ATOMS id type x y z
165441 1 120.75 162.75 48.75
255243 1 126.75 156.75 75.75
325442 1 123.75 162.75 96.75
355343 1 126.75 159.75 105.75
365839 1 114.75 174.75 108.75
375243 1 126.75 156.75 111.75
385740 1 117.75 171.75 114.75
395045 1 132.75 150.75 117.75
404041 1 120.75 120.75 120.75
405045 1 132.75 150.75 120.75
415346 1 135.75 159.75 123.75
425039 1 114.75 150.75 126.75
425447 1 138.75 162.75 126.75
435242 1 123.75 156.75 129.75
435243 1 126.75 156.75 129.75
435744 1 129.75 171.75 129.75
444941 1 120.75 147.75 132.75
445143 1 126.75 153.75 132.75
445243 1 126.75 156.75 132.75
454741 1 120.75 141.75 135.75
455344 1 129.75 159.75 135.75
464644 1 129.75 138.75 138.75
465344 1 129.75 159.75 138.75
494837 1 108.75 144.75 147.75
514641 1 120.75 138.75 153.75
1135439 1 116.25 164.25 41.25
1155342 1 125.25 161.25 47.25
1175645 1 134.25 170.25 53.25
1185743 1 128.25 173.25 56.25
1235547 1 140.25 167.25 71.25
1346533 1 98.25 197.25 104.25
1365932 1 95.25 179.25 110.25
1394946 1 137.25 149.25 119.25
1395346 1 137.25 161.25 119.25
1434742 1 125.25 143.25 131.25
1434939 1 116.25 149.25 131.25
1435942 1 125.25 179.25 131.25
1444942 1 125.25 149.25 134.25
1454843 1 128.25 146.25 137.25
1455138 1 113.25 155.25 137.25
1464744 1 131.25 143.25 140.25
1465143 1 128.25 155.25 140.25
1484641 1 122.25 140.25 146.25
1505742 1 125.25 173.25 152.25
1555847 1 140.25 176.25 167.25
