ITEM: TIMESTEP
79000
ITEM: NUMBER OF ATOMS
39
ITEM: BOX BOUNDS pp pp pp
0 300
0 300
0 300
ITEM: ATOMS id type x y z c_myKE c_myPE
1296368 1 207.475 194.7 86.4804 0.0651973 -6.44926
1394659 1 178.737 138.738 118.287 0.228058 -6.24581
1404665 1 195.725 138.855 121.573 0.295363 -6.18332
1404766 1 199.016 141.851 121.602 0.0882363 -6.24052
435158 1 173.427 157.787 126.549 0.114102 -8.40982
1425264 1 191.53 157.568 124.594 0.0578461 -5.95714
1415173 1 221.36 157.871 124.913 0.0559932 -6.37837
435458 1 173.646 161.367 125.927 0.0344907 -7.40045
444958 1 170.297 154.743 127.841 0.0533147 -7.53143
1425057 1 173.365 155.226 128.071 0.249552 -7.71071
1435155 1 169.325 157.158 128.878 0.309137 -7.84304
1444254 1 164.281 129.003 134.415 0.0170386 -6.8894
1463463 1 189.448 102.436 140.656 0.0304111 -6.25621
1503569 1 210.816 103.396 151.442 0.0583386 -6.47254
1513568 1 207.491 103.626 154.621 0.0223436 -6.65378
1523567 1 204.431 103.237 157.685 0.0515481 -6.54088
1523769 1 210.518 110.052 159.606 0.0519473 -6.08264
1533770 1 213.726 110.006 162.784 0.0134982 -6.22879
213852 1 155.589 113.426 57.5238 0.0311102 -6.60517
307468 1 203.682 228.247 84.5866 0.0710664 -5.91611
322954 1 159.566 82.923 92.3451 0.219896 -6.3436
326860 1 180.288 207.11 91.1117 0.275159 -6.14871
345575 1 228.068 165.709 100.751 0.0320424 -6.57823
354444 1 129.637 132.739 104.045 0.204194 -6.7592
364544 1 129.344 135.885 107.526 0.132004 -6.66881
385374 1 225.096 159.446 111.658 0.385883 -6.22236
415257 1 171.257 155.263 119.99 0.376991 -7.27993
1425156 1 170.255 156.349 123.923 0.107686 -7.8369
405158 1 177.31 154.685 122.915 0.0509526 -7.15059
435058 1 172.38 153.154 126.112 0.148801 -7.71721
435156 1 168.803 156.541 126.152 0.115537 -8.16807
415259 1 177.158 157.934 126.137 0.283769 -7.13935
435958 1 174.017 178.365 129.405 0.0767568 -6.6371
444354 1 161.62 129.406 134.107 0.300976 -6.46642
474153 1 161.232 123.141 140.015 0.217856 -6.78598
483257 1 172.49 95.6856 143.348 0.0754731 -6.82257
1476770 1 209.229 209.309 142.529 0.113843 -7.08796
477071 1 213.762 213.476 142.406 0.0601238 -6.70532
573843 1 126.733 111.885 175.294 0.086109 -5.6059
