ITEM: TIMESTEP
94000
ITEM: NUMBER OF ATOMS
52
ITEM: BOX BOUNDS pp pp pp
0 300
0 300
0 300
ITEM: ATOMS id type x y z
487064 1 189.75 210.75 144.75
516153 1 156.75 183.75 153.75
526053 1 156.75 180.75 156.75
526152 1 153.75 183.75 156.75
564451 1 150.75 132.75 168.75
573643 1 126.75 108.75 171.75
604549 1 144.75 135.75 180.75
616054 1 159.75 180.75 183.75
636492 1 273.75 192.75 189.75
636591 1 270.75 195.75 189.75
667876 1 225.75 234.75 198.75
676790 1 267.75 201.75 201.75
708994 1 279.75 267.75 210.75
717585 1 252.75 225.75 213.75
738687 1 258.75 258.75 219.75
746767 1 198.75 201.75 222.75
757374 1 219.75 219.75 225.75
766867 1 198.75 204.75 228.75
767276 1 225.75 216.75 228.75
767376 1 225.75 219.75 228.75
767476 1 225.75 222.75 228.75
777275 1 222.75 216.75 231.75
869386 1 255.75 279.75 258.75
1423951 1 152.25 119.25 128.25
1424340 1 119.25 131.25 128.25
1434341 1 122.25 131.25 131.25
1504662 1 185.25 140.25 152.25
1522932 1 95.25 89.25 158.25
1526151 1 152.25 185.25 158.25
1526252 1 155.25 188.25 158.25
1536053 1 158.25 182.25 161.25
1536152 1 155.25 185.25 161.25
1544837 1 110.25 146.25 164.25
1594436 1 107.25 134.25 179.25
1626169 1 206.25 185.25 188.25
1669193 1 278.25 275.25 200.25
1669292 1 275.25 278.25 200.25
1718686 1 257.25 260.25 215.25
1728685 1 254.25 260.25 218.25
1728786 1 257.25 263.25 218.25
1738785 1 254.25 263.25 221.25
1738797 1 290.25 263.25 221.25
1746868 1 203.25 206.25 224.25
1756866 1 197.25 206.25 227.25
1756867 1 200.25 206.25 227.25
1757072 1 215.25 212.25 227.25
1757275 1 224.25 218.25 227.25
1757374 1 221.25 221.25 227.25
1757375 1 224.25 221.25 227.25
1767073 1 218.25 212.25 230.25
1767172 1 215.25 215.25 230.25
1767173 1 218.25 215.25 230.25
