ITEM: TIMESTEP
76244
ITEM: NUMBER OF ATOMS
38
ITEM: BOX BOUNDS pp pp pp
0 300
0 300
0 300
ITEM: ATOMS id type x y z
393435 1 102.75 102.75 117.75
414737 1 108.75 141.75 123.75
414836 1 105.75 144.75 123.75
424736 1 105.75 141.75 126.75
445038 1 111.75 150.75 132.75
503943 1 126.75 117.75 150.75
514042 1 123.75 120.75 153.75
515830 1 87.75 174.75 153.75
524142 1 123.75 123.75 156.75
525829 1 84.75 174.75 156.75
563245 1 132.75 96.75 168.75
573542 1 123.75 105.75 171.75
583442 1 123.75 102.75 174.75
593542 1 123.75 105.75 177.75
605148 1 141.75 153.75 180.75
622637 1 108.75 78.75 186.75
624431 1 90.75 132.75 186.75
655641 1 120.75 168.75 195.75
1354530 1 89.25 137.25 107.25
1383234 1 101.25 98.25 116.25
1393434 1 101.25 104.25 119.25
1417235 1 104.25 218.25 125.25
1447249 1 146.25 218.25 134.25
1452226 1 77.25 68.25 137.25
1464426 1 77.25 134.25 140.25
1485223 1 68.25 158.25 146.25
1493943 1 128.25 119.25 149.25
1494235 1 104.25 128.25 149.25
1495140 1 119.25 155.25 149.25
1514141 1 122.25 125.25 155.25
1514550 1 149.25 137.25 155.25
1553245 1 134.25 98.25 167.25
1573543 1 128.25 107.25 173.25
1583542 1 125.25 107.25 176.25
1595244 1 131.25 158.25 179.25
1605148 1 143.25 155.25 182.25
1614430 1 89.25 134.25 185.25
1614644 1 131.25 140.25 185.25
