ITEM: TIMESTEP
80000
ITEM: NUMBER OF ATOMS
38
ITEM: BOX BOUNDS pp pp pp
0 300
0 300
0 300
ITEM: ATOMS id type x y z c_myKE c_myPE
1324158 1 173.437 124.574 94.1202 0.559953 -5.87403
1364134 1 99.4974 124.544 106.877 0.12789 -6.09724
1363748 1 143.662 110.141 108.697 0.106503 -6.8504
1403137 1 106.781 90.8092 121.541 0.120971 -6.70521
1413037 1 106.913 87.6745 124.779 0.3601 -7.38135
1443557 1 172.316 105.428 134.261 0.0188379 -6.72646
1464654 1 160.954 140.774 140.779 0.330211 -6.32941
1491861 1 183.342 51.1891 148.38 0.215719 -6.53213
1483934 1 99.2985 119.41 147.132 0.267788 -6.86042
1513743 1 127.646 108.61 157.964 0.145884 -7.35705
1533743 1 127.833 111.867 161.107 0.0722669 -7.25965
1543843 1 124.507 111.719 164.104 0.260897 -7.57653
553744 1 124.767 111.898 167.458 0.429623 -7.40923
1563054 1 162.538 89.6821 172.286 0.131 -6.02815
1563155 1 166.031 92.5913 172.584 0.186423 -6.59251
754065 1 197.743 119.711 231.217 0.138247 -7.46039
1754065 1 199.133 121.47 233.106 0.0391488 -7.14272
1814158 1 173.712 124.568 251.968 0.171265 -6.56525
1824550 1 148.265 137.457 255.13 0.248974 -6.68873
373748 1 142.22 108.189 110.598 0.0295734 -6.75894
394049 1 145.308 116.419 114.801 0.0511356 -6.47026
414732 1 89.1139 141.882 121.062 0.261786 -6.5404
453557 1 170.95 104.081 136.106 0.075378 -6.4064
483353 1 155.952 98.7494 145.297 0.149857 -6.08098
533742 1 124.379 108.459 161.223 0.11538 -7.53821
1523846 1 129.438 113.408 162.795 0.0980816 -6.51071
1553743 1 123.164 113.534 165.671 0.18222 -7.40056
553055 1 164.502 88.0121 167.788 0.369659 -7.27645
584544 1 130.284 133.747 175.416 0.123338 -5.69867
583838 1 110.409 111.745 177.342 0.279399 -6.77638
615351 1 149.786 161.518 184.777 0.110332 -6.25892
1623439 1 113.604 98.9787 188.087 0.298723 -7.46161
623538 1 110.3 101.914 186.936 0.261213 -6.4648
623439 1 111.723 98.9419 189.9 0.10202 -7.03633
623539 1 113.717 100.642 190.012 0.123939 -7.4893
654643 1 126.527 140.398 200.674 0.345793 -5.83046
753968 1 203.744 116.811 231.599 0.02127 -6.82806
834550 1 146.684 136.071 257.138 0.106468 -6.88206
