ITEM: TIMESTEP
81000
ITEM: NUMBER OF ATOMS
41
ITEM: BOX BOUNDS pp pp pp
0 300
0 300
0 300
ITEM: ATOMS id type x y z
414041 1 120.75 120.75 123.75
423940 1 117.75 117.75 126.75
453738 1 111.75 111.75 135.75
484050 1 147.75 120.75 144.75
504457 1 168.75 132.75 150.75
524557 1 168.75 135.75 156.75
524758 1 171.75 141.75 156.75
594635 1 102.75 138.75 177.75
604635 1 102.75 138.75 180.75
604735 1 102.75 141.75 180.75
615036 1 105.75 150.75 183.75
624936 1 105.75 147.75 186.75
654435 1 102.75 132.75 195.75
675539 1 114.75 165.75 201.75
695338 1 111.75 159.75 207.75
705516 1 45.75 165.75 210.75
715033 1 96.75 150.75 213.75
724630 1 87.75 138.75 216.75
815822 1 63.75 174.75 243.75
825924 1 69.75 177.75 246.75
1373850 1 149.25 116.25 113.25
1384150 1 149.25 125.25 116.25
1413940 1 119.25 119.25 125.25
1514441 1 122.25 134.25 155.25
1514643 1 128.25 140.25 155.25
1514856 1 167.25 146.25 155.25
1554557 1 170.25 137.25 167.25
1604634 1 101.25 140.25 182.25
1624836 1 107.25 146.25 188.25
1674231 1 92.25 128.25 203.25
1674736 1 107.25 143.25 203.25
1675338 1 113.25 161.25 203.25
1685439 1 116.25 164.25 206.25
1714923 1 68.25 149.25 215.25
1715023 1 68.25 152.25 215.25
1715515 1 44.25 167.25 215.25
1755220 1 59.25 158.25 227.25
1765819 1 56.25 176.25 230.25
1775517 1 50.25 167.25 233.25
1775522 1 65.25 167.25 233.25
1825724 1 71.25 173.25 248.25
