ITEM: TIMESTEP
78000
ITEM: NUMBER OF ATOMS
53
ITEM: BOX BOUNDS pp pp pp
0 300
0 300
0 300
ITEM: ATOMS id type x y z
344648 1 141.75 138.75 102.75
403840 1 117.75 114.75 120.75
463940 1 117.75 117.75 138.75
474352 1 153.75 129.75 141.75
484140 1 117.75 123.75 144.75
503340 1 117.75 99.75 150.75
504239 1 114.75 126.75 150.75
513442 1 123.75 102.75 153.75
523741 1 120.75 111.75 156.75
523939 1 114.75 117.75 156.75
524041 1 120.75 120.75 156.75
524341 1 120.75 129.75 156.75
524441 1 120.75 132.75 156.75
533741 1 120.75 111.75 159.75
543542 1 123.75 105.75 162.75
543644 1 129.75 108.75 162.75
543839 1 114.75 114.75 162.75
543942 1 123.75 117.75 162.75
544828 1 81.75 144.75 162.75
553943 1 126.75 117.75 165.75
554045 1 132.75 120.75 165.75
563841 1 120.75 114.75 168.75
603841 1 120.75 114.75 180.75
1324444 1 131.25 134.25 98.25
1344446 1 137.25 134.25 104.25
1374147 1 140.25 125.25 113.25
1403940 1 119.25 119.25 122.25
1444332 1 95.25 131.25 134.25
1472438 1 113.25 74.25 143.25
1483952 1 155.25 119.25 146.25
1484444 1 131.25 134.25 146.25
1494040 1 119.25 122.25 149.25
1494443 1 128.25 134.25 149.25
1494623 1 68.25 140.25 149.25
1503641 1 122.25 110.25 152.25
1503741 1 122.25 113.25 152.25
1504143 1 128.25 125.25 152.25
1523838 1 113.25 116.25 158.25
1523841 1 122.25 116.25 158.25
1524554 1 161.25 137.25 158.25
1533541 1 122.25 107.25 161.25
1533638 1 113.25 110.25 161.25
1533838 1 113.25 116.25 161.25
1533842 1 125.25 116.25 161.25
1543740 1 119.25 113.25 164.25
1544326 1 77.25 131.25 164.25
1553843 1 128.25 116.25 167.25
1573248 1 143.25 98.25 173.25
1573348 1 143.25 101.25 173.25
1583942 1 125.25 119.25 176.25
1593443 1 128.25 104.25 179.25
1593840 1 119.25 116.25 179.25
1603343 1 128.25 101.25 182.25
