ITEM: TIMESTEP
79000
ITEM: NUMBER OF ATOMS
44
ITEM: BOX BOUNDS pp pp pp
0 300
0 300
0 300
ITEM: ATOMS id type x y z
405143 1 126.75 153.75 120.75
415041 1 120.75 150.75 123.75
434544 1 129.75 135.75 129.75
435144 1 129.75 153.75 129.75
435244 1 129.75 156.75 129.75
435432 1 93.75 162.75 129.75
435438 1 111.75 162.75 129.75
443549 1 144.75 105.75 132.75
444544 1 129.75 135.75 132.75
444645 1 132.75 138.75 132.75
445142 1 123.75 153.75 132.75
445432 1 93.75 162.75 132.75
453848 1 141.75 114.75 135.75
454147 1 138.75 123.75 135.75
474448 1 141.75 132.75 141.75
474551 1 150.75 135.75 141.75
474645 1 132.75 138.75 141.75
493852 1 153.75 114.75 147.75
523947 1 138.75 117.75 156.75
526561 1 180.75 195.75 156.75
536261 1 180.75 186.75 159.75
555662 1 183.75 168.75 165.75
575861 1 180.75 174.75 171.75
1403351 1 152.25 101.25 122.25
1404942 1 125.25 149.25 122.25
1424840 1 119.25 146.25 128.25
1425240 1 119.25 158.25 128.25
1433349 1 146.25 101.25 131.25
1434445 1 134.25 134.25 131.25
1443348 1 143.25 101.25 134.25
1454341 1 122.25 131.25 137.25
1464543 1 128.25 137.25 140.25
1464644 1 131.25 140.25 140.25
1465143 1 128.25 155.25 140.25
1513843 1 128.25 116.25 155.25
1526159 1 176.25 185.25 158.25
1546260 1 179.25 188.25 164.25
1566562 1 185.25 197.25 170.25
1576662 1 185.25 200.25 173.25
1586253 1 158.25 188.25 176.25
1606563 1 188.25 197.25 182.25
1606863 1 188.25 206.25 182.25
1606960 1 179.25 209.25 182.25
1635960 1 179.25 179.25 191.25
