ITEM: TIMESTEP
80000
ITEM: NUMBER OF ATOMS
39
ITEM: BOX BOUNDS pp pp pp
0 300
0 300
0 300
ITEM: ATOMS id type x y z
404746 1 135.75 141.75 120.75
425755 1 162.75 171.75 126.75
435755 1 162.75 171.75 129.75
444649 1 144.75 138.75 132.75
445554 1 159.75 165.75 132.75
445655 1 162.75 168.75 132.75
476342 1 123.75 189.75 141.75
486343 1 126.75 189.75 144.75
503240 1 117.75 96.75 150.75
535836 1 105.75 174.75 159.75
535837 1 108.75 174.75 159.75
535937 1 108.75 177.75 159.75
545838 1 111.75 174.75 162.75
556542 1 123.75 195.75 165.75
566048 1 141.75 180.75 168.75
606030 1 87.75 180.75 180.75
615439 1 114.75 162.75 183.75
634459 1 174.75 132.75 189.75
636051 1 150.75 180.75 189.75
646573 1 216.75 195.75 192.75
735763 1 186.75 171.75 219.75
1404345 1 134.25 131.25 122.25
1425555 1 164.25 167.25 128.25
1425655 1 164.25 170.25 128.25
1435655 1 164.25 170.25 131.25
1442938 1 113.25 89.25 134.25
1443039 1 116.25 92.25 134.25
1452939 1 116.25 89.25 137.25
1453441 1 122.25 104.25 137.25
1453542 1 125.25 107.25 137.25
1463442 1 125.25 104.25 140.25
1494153 1 158.25 125.25 149.25
1535625 1 74.25 170.25 161.25
1546541 1 122.25 197.25 164.25
1588049 1 146.25 242.25 176.25
1616350 1 149.25 191.25 185.25
1626363 1 188.25 191.25 188.25
1664552 1 155.25 137.25 200.25
1726163 1 188.25 185.25 218.25
