ITEM: TIMESTEP
82000
ITEM: NUMBER OF ATOMS
45
ITEM: BOX BOUNDS pp pp pp
0 300
0 300
0 300
ITEM: ATOMS id type x y z
414041 1 120.75 120.75 123.75
443746 1 135.75 111.75 132.75
543738 1 111.75 111.75 162.75
544244 1 129.75 126.75 162.75
544344 1 129.75 129.75 162.75
595140 1 117.75 153.75 177.75
614543 1 126.75 135.75 183.75
614545 1 132.75 135.75 183.75
634764 1 189.75 141.75 189.75
645538 1 111.75 165.75 192.75
663542 1 123.75 105.75 198.75
664761 1 180.75 141.75 198.75
673644 1 129.75 108.75 201.75
683345 1 132.75 99.75 204.75
764547 1 138.75 135.75 228.75
774658 1 171.75 138.75 231.75
784541 1 120.75 135.75 234.75
784744 1 129.75 141.75 234.75
784944 1 129.75 147.75 234.75
795253 1 156.75 156.75 237.75
805049 1 144.75 150.75 240.75
834343 1 126.75 129.75 249.75
884554 1 159.75 135.75 264.75
1433744 1 131.25 113.25 131.25
1443744 1 131.25 113.25 134.25
1453545 1 134.25 107.25 137.25
1453744 1 131.25 113.25 137.25
1464241 1 122.25 128.25 140.25
1534144 1 131.25 125.25 161.25
1534244 1 131.25 128.25 161.25
1605044 1 131.25 152.25 182.25
1613345 1 134.25 101.25 185.25
1614964 1 191.25 149.25 185.25
1653345 1 134.25 101.25 197.25
1653543 1 128.25 107.25 197.25
1655144 1 131.25 155.25 197.25
1664051 1 152.25 122.25 200.25
1673045 1 134.25 92.25 203.25
1673744 1 131.25 113.25 203.25
1673745 1 134.25 113.25 203.25
1694251 1 152.25 128.25 209.25
1774645 1 134.25 140.25 233.25
1784349 1 146.25 131.25 236.25
1804150 1 149.25 125.25 242.25
1804352 1 155.25 131.25 242.25
