ITEM: TIMESTEP
81000
ITEM: NUMBER OF ATOMS
54
ITEM: BOX BOUNDS pp pp pp
0 300
0 300
0 300
ITEM: ATOMS id type x y z
383081 1 240.75 90.75 114.75
393581 1 240.75 105.75 117.75
403763 1 186.75 111.75 120.75
404243 1 126.75 126.75 120.75
413883 1 246.75 114.75 123.75
414141 1 120.75 123.75 123.75
423979 1 234.75 117.75 126.75
424384 1 249.75 129.75 126.75
424650 1 147.75 138.75 126.75
433679 1 234.75 108.75 129.75
444055 1 162.75 120.75 132.75
454161 1 180.75 123.75 135.75
454255 1 162.75 126.75 135.75
454372 1 213.75 129.75 135.75
464151 1 150.75 123.75 138.75
464253 1 156.75 126.75 138.75
464260 1 177.75 126.75 138.75
464454 1 159.75 132.75 138.75
464455 1 162.75 132.75 138.75
473858 1 171.75 114.75 141.75
474853 1 156.75 144.75 141.75
483951 1 150.75 117.75 144.75
484055 1 162.75 120.75 144.75
484655 1 162.75 138.75 144.75
494653 1 156.75 138.75 147.75
494762 1 183.75 141.75 147.75
504453 1 156.75 132.75 150.75
514853 1 156.75 144.75 153.75
525059 1 174.75 150.75 156.75
1404552 1 155.25 137.25 122.25
1413983 1 248.25 119.25 125.25
1414456 1 167.25 134.25 125.25
1423580 1 239.25 107.25 128.25
1423678 1 233.25 110.25 128.25
1424651 1 152.25 140.25 128.25
1433680 1 239.25 110.25 131.25
1433778 1 233.25 113.25 131.25
1433978 1 233.25 119.25 131.25
1434046 1 137.25 122.25 131.25
1434444 1 131.25 134.25 131.25
1444153 1 158.25 125.25 134.25
1444545 1 134.25 137.25 134.25
1453756 1 167.25 113.25 137.25
1454372 1 215.25 131.25 137.25
1464452 1 155.25 134.25 140.25
1474653 1 158.25 140.25 143.25
1474755 1 164.25 143.25 143.25
1484352 1 155.25 131.25 146.25
1484551 1 152.25 137.25 146.25
1484558 1 173.25 137.25 146.25
1484651 1 152.25 140.25 146.25
1494559 1 176.25 137.25 149.25
1514454 1 161.25 134.25 155.25
1544059 1 176.25 122.25 164.25
