ITEM: TIMESTEP
88197
ITEM: NUMBER OF ATOMS
36
ITEM: BOX BOUNDS pp pp pp
0 300
0 300
0 300
ITEM: ATOMS id type x y z
424735 1 102.75 141.75 126.75
455154 1 159.75 153.75 135.75
469353 1 156.75 279.75 138.75
493346 1 135.75 99.75 147.75
514552 1 153.75 135.75 153.75
523731 1 90.75 111.75 156.75
523832 1 93.75 114.75 156.75
524551 1 150.75 135.75 156.75
533732 1 93.75 111.75 159.75
533831 1 90.75 114.75 159.75
534552 1 153.75 135.75 159.75
554233 1 96.75 126.75 165.75
555846 1 135.75 174.75 165.75
566858 1 171.75 204.75 168.75
568661 1 180.75 258.75 168.75
568761 1 180.75 261.75 168.75
568762 1 183.75 261.75 168.75
587659 1 174.75 228.75 174.75
589065 1 192.75 270.75 174.75
633741 1 120.75 111.75 189.75
659051 1 150.75 270.75 195.75
716557 1 168.75 195.75 213.75
736856 1 165.75 204.75 219.75
1363042 1 125.25 92.25 110.25
1383841 1 122.25 116.25 116.25
1459352 1 155.25 281.25 137.25
1514550 1 149.25 137.25 155.25
1566857 1 170.25 206.25 170.25
1573850 1 149.25 116.25 173.25
1573949 1 146.25 119.25 173.25
1577559 1 176.25 227.25 173.25
1578964 1 191.25 269.25 173.25
1579063 1 188.25 272.25 173.25
1588662 1 185.25 260.25 176.25
1596758 1 173.25 203.25 179.25
1706457 1 170.25 194.25 212.25
