ITEM: TIMESTEP
83892
ITEM: NUMBER OF ATOMS
57
ITEM: BOX BOUNDS pp pp pp
0 300
0 300
0 300
ITEM: ATOMS id type x y z
404041 1 120.75 120.75 120.75
424743 1 126.75 141.75 126.75
434542 1 123.75 135.75 129.75
434943 1 126.75 147.75 129.75
454644 1 129.75 138.75 135.75
454945 1 132.75 147.75 135.75
464945 1 132.75 147.75 138.75
474143 1 126.75 123.75 141.75
481542 1 123.75 45.75 144.75
494346 1 135.75 129.75 147.75
501443 1 126.75 42.75 150.75
501642 1 123.75 48.75 150.75
503438 1 111.75 102.75 150.75
504244 1 129.75 126.75 150.75
504344 1 129.75 129.75 150.75
504443 1 126.75 132.75 150.75
504841 1 120.75 144.75 150.75
504945 1 132.75 147.75 150.75
514144 1 129.75 123.75 153.75
524344 1 129.75 129.75 156.75
531340 1 117.75 39.75 159.75
531546 1 135.75 45.75 159.75
533250 1 147.75 96.75 159.75
544044 1 129.75 120.75 162.75
544243 1 126.75 126.75 162.75
551441 1 120.75 42.75 165.75
563239 1 114.75 96.75 168.75
591437 1 108.75 42.75 177.75
1434544 1 131.25 137.25 131.25
1454643 1 128.25 140.25 137.25
1464442 1 125.25 134.25 140.25
1471048 1 143.25 32.25 143.25
1471343 1 128.25 41.25 143.25
1474245 1 134.25 128.25 143.25
1474442 1 125.25 134.25 143.25
1474543 1 128.25 137.25 143.25
1481239 1 116.25 38.25 146.25
1481444 1 131.25 44.25 146.25
1482637 1 110.25 80.25 146.25
1484040 1 119.25 122.25 146.25
1484243 1 128.25 128.25 146.25
1484246 1 137.25 128.25 146.25
1484343 1 128.25 131.25 146.25
1484344 1 131.25 131.25 146.25
1484642 1 125.25 140.25 146.25
1484744 1 131.25 143.25 146.25
1490944 1 131.25 29.25 149.25
1494243 1 128.25 128.25 149.25
1494844 1 131.25 146.25 149.25
1504044 1 131.25 122.25 152.25
1504243 1 128.25 128.25 152.25
1504643 1 128.25 140.25 152.25
1513841 1 122.25 116.25 155.25
1514541 1 122.25 137.25 155.25
1514843 1 128.25 146.25 155.25
1524343 1 128.25 131.25 158.25
1561136 1 107.25 35.25 170.25
