ITEM: TIMESTEP
80000
ITEM: NUMBER OF ATOMS
23
ITEM: BOX BOUNDS pp pp pp
0 300
0 300
0 300
ITEM: ATOMS id type x y z
372235 1 102.75 66.75 111.75
483841 1 120.75 114.75 144.75
513640 1 117.75 108.75 153.75
524547 1 138.75 135.75 156.75
533444 1 129.75 102.75 159.75
553835 1 102.75 114.75 165.75
574241 1 120.75 126.75 171.75
584241 1 120.75 126.75 174.75
1382134 1 101.25 65.25 116.25
1444938 1 113.25 149.25 134.25
1453842 1 125.25 116.25 137.25
1484946 1 137.25 149.25 146.25
1503140 1 119.25 95.25 152.25
1504541 1 122.25 137.25 152.25
1522942 1 125.25 89.25 158.25
1543440 1 119.25 104.25 164.25
1543945 1 134.25 119.25 164.25
1563541 1 122.25 107.25 170.25
1574240 1 119.25 128.25 173.25
1583639 1 116.25 110.25 176.25
1583746 1 137.25 113.25 176.25
1593634 1 101.25 110.25 179.25
1593837 1 110.25 116.25 179.25
