ITEM: TIMESTEP
83183
ITEM: NUMBER OF ATOMS
45
ITEM: BOX BOUNDS pp pp pp
0 300
0 300
0 300
ITEM: ATOMS id type x y z
433846 1 135.75 114.75 129.75
433944 1 129.75 117.75 129.75
435637 1 108.75 168.75 129.75
436864 1 189.75 204.75 129.75
444045 1 132.75 120.75 132.75
446865 1 192.75 204.75 132.75
485955 1 162.75 177.75 144.75
486054 1 159.75 180.75 144.75
514955 1 162.75 147.75 153.75
534762 1 183.75 141.75 159.75
546372 1 213.75 189.75 162.75
555570 1 207.75 165.75 165.75
565470 1 207.75 162.75 168.75
565569 1 204.75 165.75 168.75
626877 1 228.75 204.75 186.75
635784 1 249.75 171.75 189.75
686766 1 195.75 201.75 204.75
696085 1 252.75 180.75 207.75
696766 1 195.75 201.75 207.75
1393751 1 152.25 113.25 119.25
1414945 1 134.25 149.25 125.25
1424944 1 131.25 149.25 128.25
1433844 1 131.25 116.25 131.25
1433944 1 131.25 119.25 131.25
1436765 1 194.25 203.25 131.25
1446572 1 215.25 197.25 134.25
1446765 1 194.25 203.25 134.25
1453762 1 185.25 113.25 137.25
1496465 1 194.25 194.25 149.25
1504755 1 164.25 143.25 152.25
1514854 1 161.25 146.25 155.25
1514855 1 164.25 146.25 155.25
1556271 1 212.25 188.25 167.25
1556370 1 209.25 191.25 167.25
1556372 1 215.25 191.25 167.25
1556471 1 212.25 194.25 167.25
1566272 1 215.25 188.25 170.25
1566371 1 212.25 191.25 170.25
1626959 1 176.25 209.25 188.25
1636682 1 245.25 200.25 191.25
1636781 1 242.25 203.25 191.25
1674380 1 239.25 131.25 203.25
1686085 1 254.25 182.25 206.25
1686665 1 194.25 200.25 206.25
1686666 1 197.25 200.25 206.25
