ITEM: TIMESTEP
77000
ITEM: NUMBER OF ATOMS
43
ITEM: BOX BOUNDS pp pp pp
0 300
0 300
0 300
ITEM: ATOMS id type x y z
434239 1 114.75 126.75 129.75
474145 1 132.75 123.75 141.75
485148 1 141.75 153.75 144.75
504654 1 159.75 138.75 150.75
505150 1 147.75 153.75 150.75
513152 1 153.75 93.75 153.75
514648 1 141.75 138.75 153.75
525251 1 150.75 156.75 156.75
535350 1 147.75 159.75 159.75
583951 1 150.75 117.75 174.75
633750 1 147.75 111.75 189.75
633854 1 159.75 114.75 189.75
633950 1 147.75 117.75 189.75
643649 1 144.75 108.75 192.75
643852 1 153.75 114.75 192.75
653549 1 144.75 105.75 195.75
663853 1 156.75 114.75 198.75
673850 1 147.75 114.75 201.75
1443650 1 149.25 110.25 134.25
1443756 1 167.25 113.25 134.25
1443757 1 170.25 113.25 134.25
1453654 1 161.25 110.25 137.25
1454246 1 137.25 128.25 137.25
1454556 1 167.25 137.25 137.25
1454948 1 143.25 149.25 137.25
1464137 1 110.25 125.25 140.25
1464353 1 158.25 131.25 140.25
1464445 1 134.25 134.25 140.25
1484643 1 128.25 140.25 146.25
1494748 1 143.25 143.25 149.25
1494945 1 134.25 149.25 149.25
1504552 1 155.25 137.25 152.25
1504748 1 143.25 143.25 152.25
1524743 1 128.25 143.25 158.25
1534534 1 101.25 137.25 161.25
1553851 1 152.25 116.25 167.25
1584251 1 152.25 128.25 176.25
1593548 1 143.25 107.25 179.25
1623254 1 161.25 98.25 188.25
1623747 1 140.25 113.25 188.25
1643346 1 137.25 101.25 194.25
1643753 1 158.25 113.25 194.25
1663548 1 143.25 107.25 200.25
