ITEM: TIMESTEP
78282
ITEM: NUMBER OF ATOMS
36
ITEM: BOX BOUNDS pp pp pp
0 300
0 300
0 300
ITEM: ATOMS id type x y z
293951 1 150.75 117.75 87.75
355739 1 114.75 171.75 105.75
384448 1 141.75 132.75 114.75
384547 1 138.75 135.75 114.75
394448 1 141.75 132.75 117.75
394548 1 141.75 135.75 117.75
433265 1 192.75 96.75 129.75
443264 1 189.75 96.75 132.75
453366 1 195.75 99.75 135.75
453465 1 192.75 102.75 135.75
454646 1 135.75 138.75 135.75
454745 1 132.75 141.75 135.75
456040 1 117.75 180.75 135.75
463466 1 195.75 102.75 138.75
464645 1 132.75 138.75 138.75
464746 1 135.75 141.75 138.75
473277 1 228.75 96.75 141.75
513446 1 135.75 102.75 153.75
514555 1 162.75 135.75 153.75
533779 1 234.75 111.75 159.75
573141 1 120.75 93.75 171.75
1293750 1 149.25 113.25 89.25
1293851 1 152.25 116.25 89.25
1303850 1 149.25 116.25 92.25
1362524 1 71.25 77.25 110.25
1382364 1 191.25 71.25 116.25
1384347 1 140.25 131.25 116.25
1394448 1 143.25 134.25 119.25
1443364 1 191.25 101.25 134.25
1443466 1 197.25 104.25 134.25
1453467 1 200.25 104.25 137.25
1453566 1 197.25 107.25 137.25
1514454 1 161.25 134.25 155.25
1524354 1 161.25 131.25 158.25
1524453 1 158.25 134.25 158.25
1525152 1 155.25 155.25 158.25
