ITEM: TIMESTEP
84411
ITEM: NUMBER OF ATOMS
53
ITEM: BOX BOUNDS pp pp pp
0 300
0 300
0 300
ITEM: ATOMS id type x y z
245756 1 165.75 171.75 72.75
293852 1 153.75 114.75 87.75
303548 1 141.75 105.75 90.75
303851 1 150.75 114.75 90.75
303952 1 153.75 117.75 90.75
325161 1 180.75 153.75 96.75
325262 1 183.75 156.75 96.75
335162 1 183.75 153.75 99.75
363844 1 129.75 114.75 108.75
365380 1 237.75 159.75 108.75
414876 1 225.75 144.75 123.75
424852 1 153.75 144.75 126.75
434870 1 207.75 144.75 129.75
434969 1 204.75 147.75 129.75
444159 1 174.75 123.75 132.75
444260 1 177.75 126.75 132.75
444869 1 204.75 144.75 132.75
454259 1 174.75 126.75 135.75
454260 1 177.75 126.75 135.75
493380 1 237.75 99.75 147.75
503480 1 237.75 102.75 150.75
514479 1 234.75 132.75 153.75
514678 1 231.75 138.75 153.75
514777 1 228.75 141.75 153.75
524778 1 231.75 141.75 156.75
544868 1 201.75 144.75 162.75
544969 1 204.75 147.75 162.75
554968 1 201.75 147.75 165.75
1204660 1 179.25 140.25 62.25
1234037 1 110.25 122.25 71.25
1283446 1 137.25 104.25 86.25
1293447 1 140.25 104.25 89.25
1293546 1 137.25 107.25 89.25
1324464 1 191.25 134.25 98.25
1363744 1 131.25 113.25 110.25
1386171 1 212.25 185.25 116.25
1395445 1 134.25 164.25 119.25
1424869 1 206.25 146.25 128.25
1434968 1 203.25 149.25 131.25
1444160 1 179.25 125.25 134.25
1454259 1 176.25 128.25 137.25
1484761 1 182.25 143.25 146.25
1493280 1 239.25 98.25 149.25
1504378 1 233.25 131.25 152.25
1504577 1 230.25 137.25 152.25
1525239 1 116.25 158.25 158.25
1534263 1 188.25 128.25 161.25
1534362 1 185.25 131.25 161.25
1544363 1 188.25 131.25 164.25
1584334 1 101.25 131.25 176.25
1584388 1 263.25 131.25 176.25
1594333 1 98.25 131.25 179.25
1604195 1 284.25 125.25 182.25
