ITEM: TIMESTEP
81000
ITEM: NUMBER OF ATOMS
44
ITEM: BOX BOUNDS pp pp pp
0 300
0 300
0 300
ITEM: ATOMS id type x y z
394045 1 132.75 120.75 117.75
434542 1 123.75 135.75 129.75
514852 1 153.75 144.75 153.75
534742 1 123.75 141.75 159.75
555342 1 123.75 159.75 165.75
565338 1 111.75 159.75 168.75
565339 1 114.75 159.75 168.75
604357 1 168.75 129.75 180.75
604558 1 171.75 135.75 180.75
614260 1 177.75 126.75 183.75
614353 1 156.75 129.75 183.75
624454 1 159.75 132.75 186.75
624455 1 162.75 132.75 186.75
624954 1 159.75 147.75 186.75
625438 1 111.75 162.75 186.75
634550 1 147.75 135.75 189.75
634751 1 150.75 141.75 189.75
656256 1 165.75 186.75 195.75
686461 1 180.75 192.75 204.75
696659 1 174.75 198.75 207.75
1384042 1 125.25 122.25 116.25
1394043 1 128.25 122.25 119.25
1394044 1 131.25 122.25 119.25
1404041 1 122.25 122.25 122.25
1424843 1 128.25 146.25 128.25
1474844 1 131.25 146.25 143.25
1484047 1 140.25 122.25 146.25
1504546 1 137.25 137.25 152.25
1504847 1 140.25 146.25 152.25
1514449 1 146.25 134.25 155.25
1524653 1 158.25 140.25 158.25
1535452 1 155.25 164.25 161.25
1575740 1 119.25 173.25 173.25
1585737 1 110.25 173.25 176.25
1595335 1 104.25 161.25 179.25
1605636 1 107.25 170.25 182.25
1614453 1 158.25 134.25 185.25
1624652 1 155.25 140.25 188.25
1634451 1 152.25 134.25 191.25
1634454 1 161.25 134.25 191.25
1636155 1 164.25 185.25 191.25
1664652 1 155.25 140.25 200.25
1666257 1 170.25 188.25 200.25
1666357 1 170.25 191.25 200.25
