ITEM: TIMESTEP
77000
ITEM: NUMBER OF ATOMS
65
ITEM: BOX BOUNDS pp pp pp
0 300
0 300
0 300
ITEM: ATOMS id type x y z
206349 1 144.75 189.75 60.75
254442 1 123.75 132.75 75.75
264443 1 126.75 132.75 78.75
265745 1 132.75 171.75 78.75
314749 1 144.75 141.75 93.75
314848 1 141.75 144.75 93.75
315242 1 123.75 156.75 93.75
324048 1 141.75 120.75 96.75
325144 1 129.75 153.75 96.75
325243 1 126.75 156.75 96.75
325342 1 123.75 159.75 96.75
364552 1 153.75 135.75 108.75
415047 1 138.75 150.75 123.75
415148 1 141.75 153.75 123.75
415249 1 144.75 156.75 123.75
415250 1 147.75 156.75 123.75
425047 1 138.75 150.75 126.75
425148 1 141.75 153.75 126.75
425149 1 144.75 153.75 126.75
435147 1 138.75 153.75 129.75
435148 1 141.75 153.75 129.75
435249 1 144.75 156.75 129.75
445044 1 129.75 150.75 132.75
445046 1 135.75 150.75 132.75
445147 1 138.75 153.75 132.75
445249 1 144.75 156.75 132.75
445250 1 147.75 156.75 132.75
445349 1 144.75 159.75 132.75
455043 1 126.75 150.75 135.75
455144 1 129.75 153.75 135.75
455148 1 141.75 153.75 135.75
455248 1 141.75 156.75 135.75
464945 1 132.75 147.75 138.75
493435 1 102.75 102.75 147.75
495860 1 177.75 174.75 147.75
553046 1 135.75 90.75 165.75
554047 1 138.75 120.75 165.75
554952 1 153.75 147.75 165.75
555053 1 156.75 150.75 165.75
1206348 1 143.25 191.25 62.25
1233549 1 146.25 107.25 71.25
1404848 1 143.25 146.25 122.25
1404947 1 140.25 149.25 122.25
1405047 1 140.25 152.25 122.25
1415047 1 140.25 152.25 125.25
1415249 1 146.25 158.25 125.25
1425047 1 140.25 152.25 128.25
1425148 1 143.25 155.25 128.25
1425149 1 146.25 155.25 128.25
1426061 1 182.25 182.25 128.25
1435046 1 137.25 152.25 131.25
1435145 1 134.25 155.25 131.25
1435147 1 140.25 155.25 131.25
1435148 1 143.25 155.25 131.25
1445045 1 134.25 152.25 134.25
1445146 1 137.25 155.25 134.25
1445148 1 143.25 155.25 134.25
1445248 1 143.25 158.25 134.25
1453750 1 149.25 113.25 137.25
1455044 1 131.25 152.25 137.25
1455147 1 140.25 155.25 137.25
1464944 1 131.25 149.25 140.25
1464958 1 173.25 149.25 140.25
1465165 1 194.25 155.25 140.25
1544046 1 137.25 122.25 164.25
