ITEM: TIMESTEP
97000
ITEM: NUMBER OF ATOMS
81
ITEM: BOX BOUNDS pp pp pp
0 360
0 360
0 360
ITEM: ATOMS id type x y z c_myKE c_myPE
2325185 1 196.138 168.719 122.751 0 -6.25334
2424182 1 184.884 123.144 144.817 0 -6.66507
2425615 1 164.246 161.118 145.086 0 -6.26703
2452983 1 187.519 120.946 151.279 0 -6.98881
2453102 1 184.471 124.088 151.358 0 -7.2195
726422 1 181.5 157.862 151.61 0 -6.65973
2467382 1 184.876 121.132 154.744 0 -7.13388
2584120 1 114.443 164.309 179.991 0 -6.60054
2598519 1 111.244 164.376 183.324 0 -6.90503
2598640 1 114.333 167.478 183.322 0 -6.9028
956095 1 162.382 145.211 194.283 0 -8.02576
2684216 1 162.507 145.143 197.513 0 -8.35814
2684458 1 165.71 148.275 197.58 0 -8.02696
956332 1 159.297 148.233 200.795 0 -8.52773
999538 1 162.466 148.229 200.705 0 -8.80135
984650 1 143.201 132.426 203.751 0 -6.84181
2712774 1 159.211 145.025 203.853 0 -8.00072
985133 1 159.3 148.162 203.884 0 -8.76637
998930 1 146.466 132.53 207.013 0 -6.55923
2713254 1 159.339 148.152 206.961 0 -8.50618
1014055 1 159.341 151.32 207.035 0 -8.73244
2713255 1 162.516 151.384 206.871 0 -8.48448
2699219 1 175.119 154.783 206.967 0 -6.40731
999896 1 159.318 151.344 210.007 0 -8.40507
2713613 1 159.068 154.74 213.034 0 -7.37019
2740870 1 212.203 119.755 215.215 0 -6.59706
2755271 1 213.62 119.369 219.282 0 -6.64148
1027392 1 215.399 121.177 218.178 0 -7.35858
2755391 1 213.675 123.09 218.048 0 -7.10692
2771118 1 237.616 155.934 221.609 0 -6.25697
2826902 1 186.587 108.082 234.41 0 -6.25025
2829525 1 132.461 180.076 234.224 0 -6.54079
2917531 1 277.113 221.654 251.595 0 -6.25476
2944644 1 254.96 175.544 256.918 0 -6.8247
3046892 1 280.175 215.407 282.602 0 -6.75564
1347812 1 276.242 215.397 286.545 0 -6.7751
3061411 1 278.74 218.64 285.119 0 -7.06121
3089600 1 243.969 202.509 291.834 0 -6.25184
3161847 1 264.356 206.932 307.785 0 -6.25426
609794 1 224.49 121.219 124.351 0 -6.25342
697015 1 162.648 141.617 143.493 0 -6.25316
725101 1 181.722 122.024 147.797 0 -7.04429
725103 1 186.133 122.664 149.694 0 -7.3146
726420 1 176.605 159.39 149.748 0 -6.62042
726541 1 179.985 162.753 149.751 0 -6.61405
740940 1 176.692 162.679 153.122 0 -7.79673
826477 1 105.224 138.412 170.251 0 -6.25413
825550 1 210.476 114.867 172.176 0 -6.26613
911953 1 218.108 112.85 189.342 0 -7.52515
912074 1 221.417 116.171 189.304 0 -6.57084
926354 1 221.416 112.801 192.667 0 -6.57475
2669576 1 160.726 143.614 195.967 0 -7.37148
2641135 1 164.069 146.782 195.953 0 -8.25782
2684334 1 160.863 146.615 199.185 0 -8.36171
2684338 1 164.041 146.725 199.077 0 -8.73343
2698855 1 164.044 149.886 199.121 0 -8.62386
985374 1 160.907 149.773 202.358 0 -8.81204
971215 1 164.045 149.818 202.247 0 -8.7453
970857 1 167.149 149.907 202.216 0 -8.00617
970974 1 164.045 153.046 202.31 0 -8.13713
2685161 1 121.12 170.348 200.913 0 -6.2588
985254 1 157.583 146.669 205.386 0 -8.22712
1014054 1 160.891 149.761 205.41 0 -8.78675
2684934 1 164.032 149.755 205.315 0 -8.50532
999041 1 117.999 132.04 208.523 0 -6.25609
1028573 1 157.708 149.699 208.517 0 -8.32201
999775 1 160.944 152.949 208.497 0 -8.28381
2742053 1 157.557 149.765 211.448 0 -7.38206
1014294 1 160.938 153.034 211.453 0 -7.70603
1014669 1 207.302 165.888 210.49 0 -6.25333
1116045 1 130.88 181.845 235.995 0 -6.82621
1129638 1 234.06 159.327 239.155 0 -6.60022
1129757 1 230.881 162.659 239.266 0 -6.90874
1144158 1 233.981 162.658 242.358 0 -6.91856
1172341 1 181.799 146.75 248.764 0 -6.25174
1202243 1 250.098 173.403 253.243 0 -6.67317
1201493 1 154.337 156.303 256.363 0 -6.25679
2944404 1 256.415 172.231 259.185 0 -6.60554
1232958 1 234.063 226.456 259.584 0 -6.82235
2960838 1 237.317 226.566 262.841 0 -6.54059
1464694 1 287.023 261.481 312.55 0 -6.25401
