ITEM: TIMESTEP
91242
ITEM: NUMBER OF ATOMS
78
ITEM: BOX BOUNDS pp pp pp
0 360
0 360
0 360
ITEM: ATOMS id type x y z
612559 1 234.75 192.75 126.75
624454 1 279.75 129.75 129.75
682266 1 195.75 135.75 141.75
696546 1 195.75 132.75 144.75
711776 1 165.75 153.75 147.75
711895 1 162.75 156.75 147.75
714347 1 318.75 216.75 147.75
728009 1 264.75 198.75 150.75
742408 1 261.75 198.75 153.75
742409 1 264.75 198.75 153.75
742410 1 267.75 198.75 153.75
743112 1 213.75 216.75 153.75
756812 1 273.75 198.75 156.75
771092 1 273.75 195.75 159.75
771211 1 270.75 198.75 159.75
771332 1 273.75 201.75 159.75
785731 1 270.75 201.75 162.75
799612 1 153.75 189.75 165.75
828530 1 147.75 192.75 171.75
828671 1 210.75 195.75 171.75
828934 1 279.75 201.75 171.75
829053 1 276.75 204.75 171.75
842615 1 282.75 183.75 174.75
842931 1 150.75 192.75 174.75
842951 1 210.75 192.75 174.75
843070 1 207.75 195.75 174.75
843454 1 279.75 204.75 174.75
843574 1 279.75 207.75 174.75
843575 1 282.75 207.75 174.75
857471 1 210.75 195.75 177.75
857974 1 279.75 207.75 177.75
872376 1 285.75 207.75 180.75
886784 1 309.75 207.75 183.75
901304 1 309.75 210.75 186.75
902983 1 306.75 252.75 186.75
917384 1 309.75 252.75 189.75
926824 1 189.75 129.75 192.75
926825 1 192.75 129.75 192.75
926945 1 192.75 132.75 192.75
941106 1 195.75 126.75 195.75
941225 1 192.75 129.75 195.75
941569 1 144.75 138.75 195.75
1028817 1 168.75 159.75 213.75
2354839 1 236.25 191.25 131.25
2383029 1 206.25 176.25 137.25
2383261 1 182.25 182.25 137.25
2397541 1 182.25 179.25 140.25
2397660 1 179.25 182.25 140.25
2409531 1 152.25 119.25 143.25
2410024 1 191.25 131.25 143.25
2410266 1 197.25 137.25 143.25
2424063 1 188.25 122.25 146.25
2424546 1 197.25 134.25 146.25
2426321 1 122.25 179.25 146.25
2441489 1 266.25 197.25 149.25
2441728 1 263.25 203.25 149.25
2442226 1 317.25 215.25 149.25
2455769 1 266.25 194.25 152.25
2455889 1 266.25 197.25 152.25
2455890 1 269.25 197.25 152.25
2456129 1 266.25 203.25 152.25
2470292 1 275.25 197.25 155.25
2470409 1 266.25 200.25 155.25
2498948 1 203.25 194.25 161.25
2499092 1 275.25 197.25 161.25
2499213 1 278.25 200.25 161.25
2514911 1 212.25 233.25 164.25
2556429 1 206.25 191.25 173.25
2556933 1 278.25 203.25 173.25
2556934 1 281.25 203.25 173.25
2557053 1 278.25 206.25 173.25
2557985 1 194.25 230.25 173.25
2570950 1 209.25 194.25 176.25
2570951 1 212.25 194.25 176.25
2585734 1 281.25 203.25 179.25
2585855 1 284.25 206.25 179.25
2640424 1 191.25 131.25 191.25
2654704 1 191.25 128.25 194.25
