ITEM: TIMESTEP
87585
ITEM: NUMBER OF ATOMS
65
ITEM: BOX BOUNDS pp pp pp
0 360
0 360
0 360
ITEM: ATOMS id type x y z c_myKE c_myPE
2279954 1 224.838 114.461 111.268 0 -6.25592
2366943 1 187.924 132.182 130.409 0 -6.67558
667739 1 175.242 129.254 133.59 0 -7.48653
2381340 1 178.392 132.214 133.764 0 -8.33304
2381341 1 181.359 132.211 133.745 0 -8.37084
2381461 1 181.549 135.389 133.833 0 -8.73085
2381462 1 184.565 135.4 133.737 0 -8.44211
667618 1 171.949 128.909 136.876 0 -6.71739
2395738 1 175.245 132.281 136.91 0 -8.38383
2395740 1 176.899 133.833 135.355 0 -8.74653
2395860 1 178.338 135.503 136.937 0 -8.62315
2395861 1 181.455 135.444 136.937 0 -8.72354
2395862 1 184.577 135.389 136.856 0 -8.42559
2395981 1 181.511 138.677 136.964 0 -8.06856
2396718 1 237.533 155.823 138.655 0 -6.55253
2411119 1 240.791 155.951 141.908 0 -6.82415
2453236 1 228.021 127.265 149.597 0 -7.3717
2438834 1 224.932 130.352 148.371 0 -6.28581
2454414 1 159.067 161.015 149.742 0 -6.75999
2454415 1 162.365 160.983 149.382 0 -6.92189
725235 1 224.936 126.036 152.684 0 -6.28631
2453235 1 228.022 129.123 151.456 0 -7.37283
2468678 1 108.072 155.945 152.723 0 -6.25692
2468948 1 207.077 161.1 152.648 0 -7.23902
767329 1 141.929 95.2096 155.903 0 -6.8185
2483348 1 206.846 164.231 155.959 0 -7.7535
827437 1 104.893 164.266 168.672 0 -6.25859
2568641 1 117.648 133.615 175.054 0 -6.2569
2596998 1 237.617 122.799 180.207 0 -6.25425
2642786 1 71.7487 191.015 190.997 0 -6.25408
2758487 1 135.664 203.861 218.388 0 -6.54911
2787166 1 135.542 200.602 221.64 0 -6.82618
2785387 1 200.587 152.749 224.866 0 -6.25548
2829062 1 186.585 167.452 232.488 0 -6.25617
2858579 1 175.074 184.64 240.81 0 -6.25589
653462 1 183.008 133.784 132.188 0 -8.25073
653463 1 186.014 133.829 131.975 0 -7.89878
667738 1 173.566 130.852 135.286 0 -8.43933
667860 1 176.766 130.692 135.378 0 -8.3855
667861 1 179.91 133.843 135.372 0 -8.76948
667983 1 186.089 137.129 135.318 0 -7.52544
666897 1 167.09 111.63 138.384 0 -6.27142
682258 1 173.525 133.819 138.357 0 -7.54401
2410020 1 176.664 133.902 138.515 0 -8.30842
682381 1 180.017 137.033 138.607 0 -8.00907
2468815 1 160.823 162.764 151.235 0 -7.04817
753524 1 125.615 114.825 154.312 0 -6.26012
753886 1 131.998 124.397 154.317 0 -6.25862
755469 1 205.453 162.52 154.312 0 -7.6152
2454549 1 207.196 164.076 152.857 0 -7.5509
755470 1 208.649 165.87 154.47 0 -7.15365
767208 1 140.159 93.625 157.672 0 -6.54338
769748 1 205.208 162.657 157.358 0 -7.49007
782825 1 197.808 124.366 160.797 0 -6.26209
811618 1 165.852 130.787 160.718 0 -6.27772
842195 1 95.6696 172.244 173.456 0 -6.2588
928982 1 183.129 184.925 192.489 0 -6.54545
929101 1 179.871 188.18 192.61 0 -6.8227
943148 1 202.195 173.487 195.8 0 -6.25482
2657809 1 147.966 208.585 195.773 0 -6.25679
999267 1 71.392 138.379 210.481 0 -6.25575
1014643 1 122.442 165.858 211.738 0 -6.25513
2801812 1 151.034 210.429 226.368 0 -6.54117
1088452 1 151.145 213.688 229.625 0 -6.82304
2830368 1 141.573 200.955 237.282 0 -6.26598
