ITEM: TIMESTEP
89456
ITEM: NUMBER OF ATOMS
136
ITEM: BOX BOUNDS pp pp pp
0 360
0 360
0 360
ITEM: ATOMS id type x y z
654283 1 126.75 156.75 135.75
712013 1 156.75 159.75 147.75
740212 1 153.75 144.75 153.75
740337 1 168.75 147.75 153.75
740938 1 171.75 162.75 153.75
754854 1 159.75 150.75 156.75
755092 1 153.75 156.75 156.75
755093 1 156.75 156.75 156.75
769137 1 168.75 147.75 159.75
769254 1 159.75 150.75 159.75
769374 1 159.75 153.75 159.75
769491 1 150.75 156.75 159.75
769494 1 159.75 156.75 159.75
769495 1 162.75 156.75 159.75
783654 1 159.75 150.75 162.75
784250 1 147.75 165.75 162.75
797695 1 162.75 141.75 165.75
798291 1 150.75 156.75 165.75
812574 1 159.75 153.75 168.75
812688 1 141.75 156.75 168.75
826620 1 177.75 144.75 171.75
826732 1 153.75 147.75 171.75
826733 1 156.75 147.75 171.75
826734 1 159.75 147.75 171.75
826851 1 150.75 150.75 171.75
826853 1 156.75 150.75 171.75
826973 1 156.75 153.75 171.75
826974 1 159.75 153.75 171.75
826976 1 165.75 153.75 171.75
827094 1 159.75 156.75 171.75
841132 1 153.75 147.75 174.75
841133 1 156.75 147.75 174.75
841374 1 159.75 153.75 174.75
841494 1 159.75 156.75 174.75
841607 1 138.75 159.75 174.75
855533 1 156.75 147.75 177.75
855772 1 153.75 153.75 177.75
855891 1 150.75 156.75 177.75
856008 1 141.75 159.75 177.75
856128 1 141.75 162.75 177.75
856134 1 159.75 162.75 177.75
869691 1 150.75 141.75 180.75
869810 1 147.75 144.75 180.75
869811 1 150.75 144.75 180.75
869812 1 153.75 144.75 180.75
869813 1 156.75 144.75 180.75
869814 1 159.75 144.75 180.75
869930 1 147.75 147.75 180.75
870050 1 147.75 150.75 180.75
870053 1 156.75 150.75 180.75
870054 1 159.75 150.75 180.75
870172 1 153.75 153.75 180.75
884212 1 153.75 144.75 183.75
884928 1 141.75 162.75 183.75
898731 1 150.75 147.75 186.75
898734 1 159.75 147.75 186.75
898735 1 162.75 147.75 186.75
898849 1 144.75 150.75 186.75
899331 1 150.75 162.75 186.75
912773 1 156.75 138.75 189.75
912888 1 141.75 141.75 189.75
912893 1 156.75 141.75 189.75
941933 1 156.75 147.75 195.75
970610 1 147.75 144.75 201.75
970730 1 147.75 147.75 201.75
985001 1 120.75 144.75 204.75
2424891 1 152.25 143.25 146.25
2425368 1 143.25 155.25 146.25
2439655 1 164.25 152.25 149.25
2454894 1 161.25 173.25 152.25
2467971 1 152.25 140.25 155.25
2469187 1 200.25 170.25 155.25
2482617 1 170.25 146.25 158.25
2482733 1 158.25 149.25 158.25
2484056 1 167.25 182.25 158.25
2496654 1 161.25 137.25 161.25
2497141 1 182.25 149.25 161.25
2511295 1 164.25 143.25 164.25
2511652 1 155.25 152.25 164.25
2511653 1 158.25 152.25 164.25
2511654 1 161.25 152.25 164.25
2511898 1 173.25 158.25 164.25
2526292 1 155.25 158.25 167.25
2526293 1 158.25 158.25 167.25
2526298 1 173.25 158.25 167.25
2526773 1 158.25 170.25 167.25
2538892 1 155.25 113.25 170.25
2540453 1 158.25 152.25 170.25
2540573 1 158.25 155.25 170.25
2540807 1 140.25 161.25 170.25
2540809 1 146.25 161.25 170.25
2554492 1 155.25 143.25 173.25
2554493 1 158.25 143.25 173.25
2554732 1 155.25 149.25 173.25
2554851 1 152.25 152.25 173.25
2554853 1 158.25 152.25 173.25
2554967 1 140.25 155.25 173.25
2554971 1 152.25 155.25 173.25
2554972 1 155.25 155.25 173.25
2554973 1 158.25 155.25 173.25
2554974 1 161.25 155.25 173.25
2554975 1 164.25 155.25 173.25
2555090 1 149.25 158.25 173.25
2555091 1 152.25 158.25 173.25
2569013 1 158.25 146.25 176.25
2569132 1 155.25 149.25 176.25
2569133 1 158.25 149.25 176.25
2569252 1 155.25 152.25 176.25
2569371 1 152.25 155.25 176.25
2569373 1 158.25 155.25 176.25
2583169 1 146.25 140.25 179.25
2583172 1 155.25 140.25 179.25
2583173 1 158.25 140.25 179.25
2583289 1 146.25 143.25 179.25
2583413 1 158.25 146.25 179.25
2583527 1 140.25 149.25 179.25
2583650 1 149.25 152.25 179.25
2583652 1 155.25 152.25 179.25
2583653 1 158.25 152.25 179.25
2583656 1 167.25 152.25 179.25
2583660 1 179.25 152.25 179.25
2583773 1 158.25 155.25 179.25
2583774 1 161.25 155.25 179.25
2597690 1 149.25 143.25 182.25
2597810 1 149.25 146.25 182.25
2597931 1 152.25 149.25 182.25
2611970 1 149.25 140.25 185.25
2612094 1 161.25 143.25 185.25
2626612 1 155.25 146.25 188.25
2626617 1 170.25 146.25 188.25
2627338 1 173.25 164.25 188.25
2640890 1 149.25 143.25 191.25
2641249 1 146.25 152.25 191.25
2669928 1 143.25 149.25 197.25
2670048 1 143.25 152.25 197.25
2683731 1 152.25 134.25 200.25
