ITEM: TIMESTEP
115000
ITEM: NUMBER OF ATOMS
61
ITEM: BOX BOUNDS pp pp pp
0 360
0 360
0 360
ITEM: ATOMS id type x y z
382807 1 18.75 210.75 78.75
386408 1 21.75 300.75 78.75
396968 1 21.75 204.75 81.75
397088 1 21.75 207.75 81.75
397448 1 21.75 216.75 81.75
458887 1 18.75 312.75 93.75
556680 1 357.75 234.75 114.75
598200 1 357.75 192.75 123.75
598556 1 345.75 201.75 123.75
670316 1 345.75 195.75 138.75
697009 1 144.75 144.75 144.75
699102 1 303.75 195.75 144.75
699117 1 348.75 195.75 144.75
699355 1 342.75 201.75 144.75
699599 1 354.75 207.75 144.75
699718 1 351.75 210.75 144.75
742317 1 348.75 195.75 153.75
756570 1 267.75 192.75 156.75
757069 1 324.75 204.75 156.75
770602 1 243.75 183.75 159.75
799396 1 225.75 183.75 165.75
799515 1 222.75 186.75 165.75
813430 1 207.75 174.75 168.75
813916 1 225.75 186.75 168.75
841972 1 153.75 168.75 174.75
856254 1 159.75 165.75 177.75
856255 1 162.75 165.75 177.75
871015 1 162.75 174.75 180.75
898851 1 150.75 150.75 186.75
928133 1 156.75 162.75 192.75
929344 1 189.75 192.75 192.75
2056566 1 17.25 296.25 68.25
2071449 1 26.25 308.25 71.25
2096528 1 23.25 215.25 77.25
2100127 1 20.25 305.25 77.25
2100247 1 20.25 308.25 77.25
2125089 1 26.25 209.25 83.25
2143327 1 20.25 305.25 86.25
2172247 1 20.25 308.25 92.25
2213278 1 353.25 251.25 101.25
2355237 1 350.25 200.25 131.25
2369637 1 350.25 200.25 134.25
2384153 1 338.25 203.25 137.25
2384759 1 356.25 218.25 137.25
2398195 1 344.25 194.25 140.25
2399036 1 347.25 215.25 140.25
2455438 1 353.25 185.25 152.25
2455774 1 281.25 194.25 152.25
2455896 1 287.25 197.25 152.25
2497250 1 149.25 152.25 161.25
2540448 1 143.25 152.25 170.25
2569728 1 143.25 164.25 176.25
2627333 1 158.25 164.25 188.25
2627453 1 158.25 167.25 188.25
2627574 1 161.25 170.25 188.25
2627577 1 170.25 170.25 188.25
2641377 1 170.25 155.25 191.25
2641735 1 164.25 164.25 191.25
2656012 1 155.25 161.25 194.25
2670173 1 158.25 155.25 197.25
2684812 1 155.25 161.25 200.25
