ITEM: TIMESTEP
87388
ITEM: NUMBER OF ATOMS
85
ITEM: BOX BOUNDS pp pp pp
0 360
0 360
0 360
ITEM: ATOMS id type x y z
626458 1 171.75 180.75 129.75
670264 1 189.75 195.75 138.75
697009 1 144.75 144.75 144.75
698699 1 174.75 186.75 144.75
698816 1 165.75 189.75 144.75
712861 1 180.75 180.75 147.75
712969 1 144.75 183.75 147.75
713703 1 186.75 201.75 147.75
727377 1 168.75 183.75 150.75
727619 1 174.75 189.75 150.75
741293 1 156.75 171.75 153.75
741413 1 156.75 174.75 153.75
741661 1 180.75 180.75 153.75
742021 1 180.75 189.75 153.75
769613 1 156.75 159.75 159.75
770452 1 153.75 180.75 159.75
784250 1 147.75 165.75 162.75
784487 1 138.75 171.75 162.75
784491 1 150.75 171.75 162.75
784743 1 186.75 177.75 162.75
784859 1 174.75 180.75 162.75
784862 1 183.75 180.75 162.75
785212 1 153.75 189.75 162.75
798772 1 153.75 168.75 165.75
799259 1 174.75 180.75 165.75
812210 1 147.75 144.75 168.75
812934 1 159.75 162.75 168.75
813295 1 162.75 171.75 168.75
813653 1 156.75 180.75 168.75
827810 1 147.75 174.75 171.75
827811 1 150.75 174.75 171.75
827932 1 153.75 177.75 171.75
828053 1 156.75 180.75 171.75
842090 1 147.75 171.75 174.75
856494 1 159.75 171.75 177.75
871249 1 144.75 180.75 180.75
871371 1 150.75 183.75 180.75
885171 1 150.75 168.75 183.75
886250 1 147.75 195.75 183.75
900164 1 129.75 183.75 186.75
900886 1 135.75 201.75 186.75
914445 1 132.75 180.75 189.75
926676 1 105.75 126.75 192.75
2340900 1 179.25 203.25 128.25
2354460 1 179.25 182.25 131.25
2383868 1 203.25 197.25 137.25
2411821 1 182.25 176.25 143.25
2412178 1 173.25 185.25 143.25
2440978 1 173.25 185.25 149.25
2440986 1 197.25 185.25 149.25
2455377 1 170.25 185.25 152.25
2455378 1 173.25 185.25 152.25
2455497 1 170.25 188.25 152.25
2455740 1 179.25 194.25 152.25
2470132 1 155.25 194.25 155.25
2470133 1 158.25 194.25 155.25
2470502 1 185.25 203.25 155.25
2471340 1 179.25 224.25 155.25
2483577 1 170.25 170.25 158.25
2483940 1 179.25 179.25 158.25
2484175 1 164.25 185.25 158.25
2498572 1 155.25 185.25 161.25
2498694 1 161.25 188.25 161.25
2512250 1 149.25 167.25 164.25
2512976 1 167.25 185.25 164.25
2526293 1 158.25 158.25 167.25
2526773 1 158.25 170.25 167.25
2527129 1 146.25 179.25 167.25
2527132 1 155.25 179.25 167.25
2527252 1 155.25 182.25 167.25
2527261 1 182.25 182.25 167.25
2527381 1 182.25 185.25 167.25
2541406 1 137.25 176.25 170.25
2541413 1 158.25 176.25 170.25
2541529 1 146.25 179.25 170.25
2541773 1 158.25 185.25 170.25
2554849 1 146.25 152.25 173.25
2555453 1 158.25 167.25 173.25
2556046 1 137.25 182.25 173.25
2598773 1 158.25 170.25 182.25
2599006 1 137.25 176.25 182.25
2612930 1 149.25 164.25 185.25
2613406 1 137.25 176.25 185.25
2613645 1 134.25 182.25 185.25
2756201 1 122.25 146.25 215.25
