ITEM: TIMESTEP
89000
ITEM: NUMBER OF ATOMS
101
ITEM: BOX BOUNDS pp pp pp
0 360
0 360
0 360
ITEM: ATOMS id type x y z c_myKE c_myPE
2310773 1 157.855 170.46 119.399 0.0758927 -5.87409
2367786 1 199.493 154.724 132.575 0.131801 -6.65115
2439897 1 170.635 156.247 148.126 0.0901591 -7.73903
2439898 1 173.887 156.263 148.151 0.388201 -7.72774
2454175 1 164.477 152.969 151.39 0.203501 -7.20338
2454176 1 167.518 152.96 151.167 0.326626 -7.80294
2454177 1 170.669 152.984 151.314 0.155191 -8.00074
2454297 1 170.736 156.345 151.47 0.115326 -8.47555
2457181 1 183.671 232.46 151.533 0.046428 -6.18765
2457302 1 186.676 235.749 151.559 0.110452 -7.17619
2468576 1 167.356 153.112 154.691 0.127912 -7.0852
2468697 1 170.641 156.204 154.613 0.179631 -7.94779
2471582 1 186.816 232.671 154.616 0.278183 -8.16825
743701 1 183.386 235.568 154.93 0.246877 -7.41878
2471702 1 186.402 235.892 154.81 0.465028 -7.77196
2486222 1 186.307 238.93 157.875 0.0302891 -7.3142
813654 1 158.028 183.351 173.957 0.0755477 -6.46151
858058 1 171.859 219.452 184.581 0.0480914 -7.18973
2656259 1 177.276 167.761 196.199 0.239905 -6.03679
943011 1 148.078 176.981 196.119 0.142992 -8.44913
899932 1 151.361 179.816 196.089 0.0542614 -8.30273
2657209 1 145.054 186.523 195.952 0.0292142 -7.77261
971931 1 148.135 176.987 199.12 0.267275 -8.33704
2671011 1 151.392 176.676 199.294 0.0689353 -7.69391
972173 1 149.806 181.256 200.824 0.0368265 -8.51993
2685650 1 144.912 182.977 199.484 0.248545 -8.47641
943373 1 148.17 183.103 199.283 0.0619088 -8.72298
2699570 1 148.123 170.385 202.424 0.0241736 -7.92969
986449 1 145.075 176.746 202.323 0.120778 -8.66038
2700048 1 138.595 180.083 202.354 0.0440515 0
2685530 1 141.821 179.907 202.71 0.278654 -8.46005
2699811 1 145.01 179.935 202.454 0.0699973 -8.73514
986569 1 141.751 183.217 202.441 0.0785736 -7.96649
2685770 1 145.05 183.063 202.424 0.0198589 -8.62176
2671490 1 144.886 186.303 202.556 0.288958 -8.03375
2700765 1 132.235 202.41 203.707 0.0683088 -7.66977
971810 1 145.06 170.42 205.677 0.0710854 -7.87544
2728609 1 141.727 173.628 205.675 0.259685 -8.56609
1000730 1 144.962 173.709 205.583 0.372562 -8.32972
1015128 1 141.774 176.858 205.672 0.19425 -8.6149
2714449 1 144.845 176.809 205.62 0.120805 -8.4955
2714328 1 141.966 179.933 205.467 0.0654386 -8.31102
986331 1 145.147 179.918 205.453 0.271116 -8.52153
2715404 1 129.138 208.71 207.146 0.105298 -8.20212
2726569 1 143.284 120.32 210.102 0.0462932 -6.81561
1015007 1 138.5 173.669 208.703 0.0772562 -7.20931
2728610 1 145.005 173.509 208.774 0.200918 -7.95951
986568 1 141.836 180.014 208.758 0.0187093 -7.88975
2729806 1 133.764 206.926 208.591 0.0155286 -7.78877
2729687 1 138.885 205.517 210.483 0.150843 -6.04132
2715405 1 129.252 209.03 210.122 0.0847972 -7.60716
2717193 1 94.0493 256.559 209.243 0.0582368 -6.76203
1016559 1 108.238 213.066 216.666 0.0958465 -7.00619
2744437 1 109.999 211.731 215.221 0.151417 -7.40588
2816912 1 91.4252 228.021 229.521 0.311261 -5.69444
1101530 1 145.45 180.056 231.301 0.0962967 -6.28677
2844269 1 79.2519 189.534 235.898 0.614641 -5.82845
2844508 1 78.3612 194.447 237.365 0.00465635 -6.77386
2888680 1 116.39 221.259 245.232 0.029547 -6.92354
569941 1 182.076 210.81 112.821 0.0858776 -7.06767
611467 1 200.596 165.69 124.645 0.178008 -6.62633
668708 1 204.236 156.023 137.09 0.258844 -7.11112
725936 1 165.851 146.659 147.797 0.0921494 -6.25844
711898 1 172.252 154.467 146.428 0.133927 -6.9869
726418 1 172.34 157.918 149.763 0.0826453 -8.33231
726419 1 175.41 157.641 149.914 0.361408 -7.71834
726538 1 172.18 160.849 149.839 0.225219 -7.35007
740697 1 169.072 154.685 152.969 0.152937 -8.58985
740818 1 172.289 158.138 153.107 0.414839 -8.12808
758222 1 184.87 237.493 156.252 0.149314 -7.86721
758223 1 188.065 237.489 156.338 0.077574 -7.88441
928852 1 146.498 178.613 191.29 0.1191 -7.1232
2642451 1 146.548 181.75 194.832 0.0432747 -8.34424
943370 1 146.638 184.618 194.61 0.167355 -7.56039
928971 1 146.682 187.915 194.333 0.0823445 -7.42353
2642572 1 149.88 181.388 197.723 0.13201 -8.38934
2657089 1 146.58 184.719 197.666 0.2021 -8.54484
971570 1 144.821 167.36 202.206 0.106795 -7.78304
957531 1 146.561 172.166 200.959 0.176812 -8.01591
2685171 1 149.802 172.064 201.001 0.35222 -7.40394
971812 1 146.692 175.119 200.78 0.0703295 -8.40362
957532 1 146.502 178.406 200.811 0.00144596 -8.67994
957771 1 146.614 181.452 200.96 0.171312 -8.34141
972547 1 200.885 194.532 202.415 0.131285 -6.53835
2686485 1 130.739 207.132 202.283 0.2349 -8.22263
2714210 1 148.032 173.453 205.477 0.0523417 -8.49058
986330 1 148.088 176.782 205.39 0.497093 -8.21819
2714687 1 138.263 186.175 205.671 0.070607 -7.08057
986946 1 197.699 194.879 205.363 0.0094607 -7.01266
987285 1 130.561 203.932 205.402 0.0466639 -8.25982
987286 1 134.034 203.714 205.258 0.0588359 -7.8883
2715284 1 127.462 207.026 205.456 0.198851 -7.44301
987405 1 130.649 207.217 205.363 0.0928289 -8.1675
987406 1 133.973 206.855 205.479 0.0171219 -8.2923
987407 1 137.002 207.247 205.412 0.0675575 -7.20994
1000968 1 137.148 181.732 207.22 0.397269 -6.85609
2700168 1 140.254 184.915 207.332 0.0952341 -7.42454
2715525 1 130.777 207.115 208.656 0.184886 -8.25085
1015248 1 143.291 178.5 210.315 0.0707452 -8.28699
1045479 1 113.142 214.994 215.041 0.226817 -7.02378
1030839 1 109.693 211.427 218.201 0.429374 -7.15937
