ITEM: TIMESTEP
89000
ITEM: NUMBER OF ATOMS
101
ITEM: BOX BOUNDS pp pp pp
0 360
0 360
0 360
ITEM: ATOMS id type x y z
597294 1 159.75 171.75 123.75
654307 1 198.75 156.75 135.75
726298 1 171.75 156.75 150.75
726299 1 174.75 156.75 150.75
740576 1 165.75 153.75 153.75
740577 1 168.75 153.75 153.75
740578 1 171.75 153.75 153.75
740698 1 171.75 156.75 153.75
743582 1 183.75 228.75 153.75
743703 1 186.75 231.75 153.75
754977 1 168.75 153.75 156.75
755098 1 171.75 156.75 156.75
757983 1 186.75 228.75 156.75
758102 1 183.75 231.75 156.75
758103 1 186.75 231.75 156.75
772623 1 186.75 234.75 159.75
842574 1 159.75 183.75 174.75
887098 1 171.75 216.75 183.75
942780 1 177.75 168.75 195.75
943131 1 150.75 177.75 195.75
943252 1 153.75 180.75 195.75
943490 1 147.75 186.75 195.75
957531 1 150.75 177.75 198.75
957532 1 153.75 177.75 198.75
957651 1 150.75 180.75 198.75
957770 1 147.75 183.75 198.75
957771 1 150.75 183.75 198.75
971691 1 150.75 171.75 201.75
971930 1 147.75 177.75 201.75
972048 1 141.75 180.75 201.75
972049 1 144.75 180.75 201.75
972050 1 147.75 180.75 201.75
972169 1 144.75 183.75 201.75
972170 1 147.75 183.75 201.75
972290 1 147.75 186.75 201.75
972886 1 135.75 201.75 201.75
986090 1 147.75 171.75 204.75
986209 1 144.75 174.75 204.75
986210 1 147.75 174.75 204.75
986329 1 144.75 177.75 204.75
986330 1 147.75 177.75 204.75
986449 1 144.75 180.75 204.75
986450 1 147.75 180.75 204.75
987525 1 132.75 207.75 204.75
998569 1 144.75 123.75 207.75
1000608 1 141.75 174.75 207.75
1000610 1 147.75 174.75 207.75
1000849 1 144.75 180.75 207.75
1001806 1 135.75 204.75 207.75
1001808 1 141.75 204.75 207.75
1001925 1 132.75 207.75 207.75
1003714 1 99.75 252.75 207.75
1030838 1 111.75 210.75 213.75
1030839 1 114.75 210.75 213.75
1089033 1 96.75 225.75 225.75
1101650 1 147.75 180.75 228.75
1116389 1 84.75 189.75 231.75
1130909 1 84.75 192.75 234.75
1160801 1 120.75 219.75 240.75
2283541 1 182.25 209.25 116.25
2339467 1 200.25 167.25 128.25
2396708 1 203.25 158.25 140.25
2439536 1 167.25 149.25 149.25
2439778 1 173.25 155.25 149.25
2454298 1 173.25 158.25 152.25
2454299 1 176.25 158.25 152.25
2454418 1 173.25 161.25 152.25
2468577 1 170.25 155.25 155.25
2468698 1 173.25 158.25 155.25
2486102 1 185.25 233.25 158.25
2486103 1 188.25 233.25 158.25
2642330 1 149.25 179.25 191.25
2656850 1 149.25 182.25 194.25
2656970 1 149.25 185.25 194.25
2657090 1 149.25 188.25 194.25
2671251 1 152.25 182.25 197.25
2671370 1 149.25 185.25 197.25
2685049 1 146.25 167.25 200.25
2685290 1 149.25 173.25 200.25
2685291 1 152.25 173.25 200.25
2685410 1 149.25 176.25 200.25
2685530 1 149.25 179.25 200.25
2685650 1 149.25 182.25 200.25
2686147 1 200.25 194.25 200.25
2686605 1 134.25 206.25 200.25
2699690 1 149.25 173.25 203.25
2699810 1 149.25 176.25 203.25
2700167 1 140.25 185.25 203.25
2700546 1 197.25 194.25 203.25
2700885 1 134.25 203.25 203.25
2700886 1 137.25 203.25 203.25
2701004 1 131.25 206.25 203.25
2701005 1 134.25 206.25 203.25
2701006 1 137.25 206.25 203.25
2701007 1 140.25 206.25 203.25
2714447 1 140.25 182.25 206.25
2714568 1 143.25 185.25 206.25
2715405 1 134.25 206.25 206.25
2728729 1 146.25 179.25 209.25
2744439 1 116.25 212.25 212.25
2758718 1 113.25 209.25 215.25
