ITEM: TIMESTEP
87000
ITEM: NUMBER OF ATOMS
62
ITEM: BOX BOUNDS pp pp pp
0 360
0 360
0 360
ITEM: ATOMS id type x y z
384087 1 258.75 240.75 78.75
412639 1 234.75 234.75 84.75
441435 1 222.75 234.75 90.75
484764 1 249.75 237.75 99.75
541866 1 195.75 225.75 111.75
541875 1 222.75 225.75 111.75
555306 1 195.75 201.75 114.75
670384 1 189.75 198.75 138.75
671592 1 213.75 228.75 138.75
698944 1 189.75 192.75 144.75
713346 1 195.75 192.75 147.75
727128 1 141.75 177.75 150.75
727620 1 177.75 189.75 150.75
728462 1 183.75 210.75 150.75
742862 1 183.75 210.75 153.75
756774 1 159.75 198.75 156.75
769735 1 162.75 162.75 159.75
783772 1 153.75 153.75 162.75
813053 1 156.75 165.75 168.75
841854 1 159.75 165.75 174.75
855891 1 150.75 156.75 177.75
856135 1 162.75 162.75 177.75
856754 1 219.75 177.75 177.75
857219 1 174.75 189.75 177.75
871392 1 213.75 183.75 180.75
885431 1 210.75 174.75 183.75
899210 1 147.75 159.75 186.75
899330 1 147.75 162.75 186.75
914461 1 180.75 180.75 189.75
928752 1 213.75 177.75 192.75
929465 1 192.75 195.75 192.75
943148 1 201.75 177.75 195.75
957306 1 195.75 171.75 198.75
2212393 1 218.25 230.25 101.25
2268786 1 197.25 200.25 113.25
2298183 1 188.25 215.25 119.25
2310898 1 173.25 173.25 122.25
2354822 1 185.25 191.25 131.25
2368743 1 188.25 179.25 134.25
2370679 1 236.25 227.25 134.25
2399236 1 227.25 221.25 140.25
2426707 1 200.25 188.25 146.25
2427067 1 200.25 197.25 146.25
2440974 1 161.25 185.25 149.25
2441462 1 185.25 197.25 149.25
2471471 1 212.25 227.25 155.25
2483094 1 161.25 158.25 158.25
2485019 1 176.25 206.25 158.25
2511775 1 164.25 155.25 164.25
2526291 1 152.25 158.25 167.25
2555951 1 212.25 179.25 173.25
2570094 1 161.25 173.25 176.25
2584254 1 161.25 167.25 179.25
2598529 1 146.25 164.25 182.25
2657827 1 200.25 206.25 194.25
2684592 1 215.25 155.25 200.25
2684709 1 206.25 158.25 200.25
2686745 1 194.25 209.25 200.25
2701385 1 194.25 215.25 203.25
2713385 1 194.25 155.25 206.25
2743986 1 197.25 200.25 212.25
2787427 1 200.25 206.25 221.25
