ITEM: TIMESTEP
90464
ITEM: NUMBER OF ATOMS
64
ITEM: BOX BOUNDS pp pp pp
0 360
0 360
0 360
ITEM: ATOMS id type x y z
596208 1 141.75 144.75 123.75
682012 1 153.75 129.75 141.75
682366 1 135.75 138.75 141.75
710926 1 135.75 132.75 147.75
725208 1 141.75 129.75 150.75
725566 1 135.75 138.75 150.75
739846 1 135.75 135.75 153.75
739850 1 147.75 135.75 153.75
754249 1 144.75 135.75 156.75
754850 1 147.75 150.75 156.75
768765 1 132.75 138.75 159.75
769008 1 141.75 144.75 159.75
783046 1 135.75 135.75 162.75
797808 1 141.75 144.75 165.75
811971 1 150.75 138.75 168.75
842811 1 150.75 189.75 174.75
857210 1 147.75 189.75 177.75
943256 1 165.75 180.75 195.75
943367 1 138.75 183.75 195.75
1014781 1 180.75 168.75 210.75
1027861 1 180.75 135.75 213.75
1042969 1 144.75 153.75 216.75
1057981 1 180.75 168.75 219.75
1058101 1 180.75 171.75 219.75
1087020 1 177.75 174.75 225.75
1101902 1 183.75 186.75 228.75
1114257 1 168.75 135.75 231.75
1114260 1 177.75 135.75 231.75
1114500 1 177.75 141.75 231.75
1130094 1 159.75 171.75 234.75
1143182 1 183.75 138.75 237.75
1186379 1 174.75 138.75 246.75
2381445 1 134.25 137.25 137.25
2395607 1 140.25 131.25 140.25
2424890 1 149.25 143.25 146.25
2438681 1 122.25 128.25 149.25
2467848 1 143.25 137.25 155.25
2468324 1 131.25 149.25 155.25
2482126 1 137.25 134.25 158.25
2511289 1 146.25 143.25 164.25
2525444 1 131.25 137.25 167.25
2525692 1 155.25 143.25 167.25
2539486 1 137.25 128.25 170.25
2539606 1 137.25 131.25 170.25
2540087 1 140.25 143.25 170.25
2570691 1 152.25 188.25 176.25
2583406 1 137.25 146.25 179.25
2613766 1 137.25 185.25 185.25
2656982 1 185.25 185.25 194.25
2699824 1 191.25 176.25 203.25
2798820 1 179.25 131.25 224.25
2800981 1 182.25 185.25 224.25
2827977 1 170.25 140.25 230.25
2828218 1 173.25 146.25 230.25
2842380 1 179.25 140.25 233.25
2856179 1 176.25 125.25 236.25
2857618 1 173.25 161.25 236.25
2859183 1 188.25 200.25 236.25
2871065 1 194.25 137.25 239.25
2885696 1 167.25 143.25 242.25
2958414 1 161.25 161.25 257.25
3031619 1 176.25 191.25 272.25
3031741 1 182.25 194.25 272.25
3089341 1 182.25 194.25 284.25
