ITEM: TIMESTEP
91000
ITEM: NUMBER OF ATOMS
61
ITEM: BOX BOUNDS pp pp pp
0 360
0 360
0 360
ITEM: ATOMS id type x y z
600936 1 285.75 261.75 123.75
601296 1 285.75 270.75 123.75
611952 1 213.75 177.75 126.75
625857 1 168.75 165.75 129.75
630098 1 291.75 270.75 129.75
644135 1 282.75 261.75 132.75
658174 1 279.75 252.75 135.75
658776 1 285.75 267.75 135.75
673295 1 282.75 270.75 138.75
682618 1 171.75 144.75 141.75
686975 1 282.75 252.75 141.75
687095 1 282.75 255.75 141.75
696299 1 174.75 126.75 144.75
698095 1 162.75 171.75 144.75
698834 1 219.75 189.75 144.75
701376 1 285.75 252.75 144.75
712881 1 240.75 180.75 147.75
715299 1 294.75 240.75 147.75
726784 1 189.75 168.75 150.75
726785 1 192.75 168.75 150.75
727273 1 216.75 180.75 150.75
727279 1 234.75 180.75 150.75
727399 1 234.75 183.75 150.75
730295 1 282.75 255.75 150.75
739613 1 156.75 129.75 153.75
740218 1 171.75 144.75 153.75
742884 1 249.75 210.75 153.75
743979 1 294.75 237.75 153.75
754378 1 171.75 138.75 156.75
754618 1 171.75 144.75 156.75
755834 1 219.75 174.75 156.75
757775 1 282.75 222.75 156.75
758975 1 282.75 252.75 156.75
770352 1 213.75 177.75 159.75
770601 1 240.75 183.75 159.75
770835 1 222.75 189.75 159.75
783176 1 165.75 138.75 162.75
783417 1 168.75 144.75 162.75
797332 1 153.75 132.75 165.75
2315011 1 272.25 275.25 122.25
2353616 1 167.25 161.25 131.25
2381698 1 173.25 143.25 137.25
2400692 1 275.25 257.25 140.25
2414973 1 278.25 254.25 143.25
2426476 1 227.25 182.25 146.25
2440393 1 218.25 170.25 149.25
2440757 1 230.25 179.25 149.25
2442941 1 302.25 233.25 149.25
2453216 1 167.25 131.25 152.25
2455157 1 230.25 179.25 152.25
2455278 1 233.25 182.25 152.25
2469193 1 218.25 170.25 155.25
2469914 1 221.25 188.25 155.25
2471617 1 290.25 230.25 155.25
2482373 1 158.25 140.25 158.25
2483715 1 224.25 173.25 158.25
2496535 1 164.25 134.25 161.25
2510936 1 167.25 134.25 164.25
2513113 1 218.25 188.25 164.25
2525456 1 167.25 137.25 167.25
2527152 1 215.25 179.25 167.25
