ITEM: TIMESTEP
87000
ITEM: NUMBER OF ATOMS
80
ITEM: BOX BOUNDS pp pp pp
0 360
0 360
0 360
ITEM: ATOMS id type x y z
596943 1 186.75 162.75 123.75
712619 1 174.75 174.75 147.75
726282 1 123.75 156.75 150.75
727022 1 183.75 174.75 150.75
739723 1 126.75 132.75 153.75
739724 1 129.75 132.75 153.75
740682 1 123.75 156.75 153.75
740695 1 162.75 156.75 153.75
754127 1 138.75 132.75 156.75
768892 1 153.75 141.75 159.75
769247 1 138.75 150.75 159.75
783286 1 135.75 141.75 162.75
783287 1 138.75 141.75 162.75
783532 1 153.75 147.75 162.75
783652 1 153.75 150.75 162.75
784132 1 153.75 162.75 162.75
797810 1 147.75 144.75 165.75
812211 1 150.75 144.75 168.75
812212 1 153.75 144.75 168.75
812688 1 141.75 156.75 168.75
812808 1 141.75 159.75 168.75
826010 1 147.75 129.75 171.75
955485 1 132.75 126.75 198.75
983947 1 198.75 117.75 204.75
984529 1 144.75 132.75 204.75
984768 1 141.75 138.75 204.75
998464 1 189.75 120.75 207.75
1012747 1 198.75 117.75 210.75
1013445 1 132.75 135.75 210.75
1013568 1 141.75 138.75 210.75
1014520 1 117.75 162.75 210.75
1043319 1 114.75 162.75 216.75
1071997 1 108.75 159.75 222.75
1173758 1 111.75 183.75 243.75
1174117 1 108.75 192.75 243.75
1216836 1 105.75 180.75 252.75
1259695 1 162.75 171.75 261.75
1259815 1 162.75 174.75 261.75
1260171 1 150.75 183.75 261.75
1316690 1 147.75 156.75 273.75
1316932 1 153.75 162.75 273.75
2339223 1 188.25 161.25 128.25
2381803 1 128.25 146.25 137.25
2410481 1 122.25 143.25 143.25
2439044 1 131.25 137.25 149.25
2468204 1 131.25 146.25 155.25
2468326 1 137.25 149.25 155.25
2482604 1 131.25 146.25 158.25
2482605 1 134.25 146.25 158.25
2482727 1 140.25 149.25 158.25
2483324 1 131.25 164.25 158.25
2483591 1 212.25 170.25 158.25
2496763 1 128.25 140.25 161.25
2497251 1 152.25 152.25 161.25
2511163 1 128.25 140.25 164.25
2525208 1 143.25 131.25 167.25
2525813 1 158.25 146.25 167.25
2525922 1 125.25 149.25 167.25
2526166 1 137.25 155.25 167.25
2526401 1 122.25 161.25 167.25
2540216 1 167.25 146.25 170.25
2541046 1 137.25 167.25 170.25
2541780 1 179.25 185.25 170.25
2554729 1 146.25 149.25 173.25
2554730 1 149.25 149.25 173.25
2554971 1 152.25 155.25 173.25
2568651 1 152.25 137.25 176.25
2569128 1 143.25 149.25 176.25
2570461 1 182.25 182.25 176.25
2712770 1 149.25 140.25 206.25
2757157 1 110.25 170.25 215.25
2770366 1 137.25 140.25 218.25
2771199 1 116.25 161.25 218.25
2783469 1 206.25 107.25 221.25
2872956 1 107.25 185.25 239.25
2901756 1 107.25 185.25 245.25
2973294 1 161.25 173.25 260.25
3002094 1 161.25 173.25 266.25
3016371 1 152.25 170.25 269.25
3030652 1 155.25 167.25 272.25
