ITEM: TIMESTEP
89496
ITEM: NUMBER OF ATOMS
67
ITEM: BOX BOUNDS pp pp pp
0 360
0 360
0 360
ITEM: ATOMS id type x y z
668209 1 144.75 144.75 138.75
711412 1 153.75 144.75 147.75
711767 1 138.75 153.75 147.75
769859 1 174.75 165.75 159.75
784623 1 186.75 174.75 162.75
813174 1 159.75 168.75 168.75
813178 1 171.75 168.75 168.75
813420 1 177.75 174.75 168.75
814030 1 207.75 189.75 168.75
827452 1 153.75 165.75 171.75
827572 1 153.75 168.75 171.75
827825 1 192.75 174.75 171.75
827829 1 204.75 174.75 171.75
841745 1 192.75 162.75 174.75
841858 1 171.75 165.75 174.75
842220 1 177.75 174.75 174.75
842450 1 147.75 180.75 174.75
856378 1 171.75 168.75 177.75
870302 1 183.75 156.75 180.75
871023 1 186.75 174.75 180.75
871143 1 186.75 177.75 180.75
871501 1 180.75 186.75 180.75
885898 1 171.75 186.75 183.75
899822 1 183.75 174.75 186.75
899937 1 168.75 177.75 186.75
900057 1 168.75 180.75 186.75
914215 1 162.75 174.75 189.75
914459 1 174.75 180.75 189.75
943380 1 177.75 183.75 195.75
943620 1 177.75 189.75 195.75
958020 1 177.75 189.75 198.75
958740 1 177.75 207.75 198.75
972187 1 198.75 183.75 201.75
1016358 1 231.75 207.75 210.75
1016478 1 231.75 210.75 210.75
1058716 1 225.75 186.75 219.75
2439526 1 137.25 149.25 149.25
2439654 1 161.25 152.25 149.25
2440143 1 188.25 164.25 149.25
2453812 1 155.25 146.25 152.25
2468577 1 170.25 155.25 155.25
2469422 1 185.25 176.25 155.25
2497379 1 176.25 155.25 161.25
2497980 1 179.25 170.25 161.25
2541546 1 197.25 179.25 170.25
2541782 1 185.25 185.25 170.25
2555457 1 170.25 167.25 173.25
2555701 1 182.25 173.25 173.25
2555821 1 182.25 176.25 173.25
2556064 1 191.25 182.25 173.25
2556175 1 164.25 185.25 173.25
2569496 1 167.25 158.25 176.25
2570214 1 161.25 176.25 176.25
2570450 1 149.25 182.25 176.25
2570825 1 194.25 191.25 176.25
2599130 1 149.25 179.25 182.25
2599258 1 173.25 182.25 182.25
2613537 1 170.25 179.25 185.25
2613540 1 179.25 179.25 185.25
2627940 1 179.25 179.25 188.25
2642105 1 194.25 173.25 191.25
2642337 1 170.25 179.25 191.25
2656258 1 173.25 167.25 194.25
2671136 1 167.25 179.25 197.25
2700780 1 179.25 200.25 203.25
2729461 1 182.25 197.25 209.25
2773158 1 233.25 209.25 218.25
