ITEM: TIMESTEP
97266
ITEM: NUMBER OF ATOMS
64
ITEM: BOX BOUNDS pp pp pp
0 360
0 360
0 360
ITEM: ATOMS id type x y z
697009 1 144.75 144.75 144.75
754971 1 150.75 153.75 156.75
812454 1 159.75 150.75 168.75
814489 1 144.75 201.75 168.75
828175 1 162.75 183.75 171.75
829248 1 141.75 210.75 171.75
829249 1 144.75 210.75 171.75
928978 1 171.75 183.75 192.75
929098 1 171.75 186.75 192.75
943257 1 168.75 180.75 195.75
943378 1 171.75 183.75 195.75
973627 1 198.75 219.75 201.75
973984 1 189.75 228.75 201.75
988263 1 186.75 225.75 204.75
1060390 1 207.75 228.75 219.75
1088475 1 222.75 210.75 225.75
1116540 1 177.75 192.75 231.75
1116660 1 177.75 195.75 231.75
1160340 1 177.75 207.75 240.75
1161785 1 192.75 243.75 240.75
1175099 1 174.75 216.75 243.75
1189496 1 165.75 216.75 246.75
1495152 1 213.75 297.75 309.75
1524068 1 201.75 300.75 315.75
1524192 1 213.75 303.75 315.75
1524311 1 210.75 306.75 315.75
1538109 1 204.75 291.75 318.75
1538704 1 189.75 306.75 318.75
1582153 1 216.75 312.75 327.75
1596787 1 198.75 318.75 330.75
2425009 1 146.25 146.25 146.25
2482731 1 152.25 149.25 158.25
2511651 1 152.25 152.25 164.25
2525810 1 149.25 146.25 167.25
2541654 1 161.25 182.25 170.25
2629264 1 191.25 212.25 188.25
2642218 1 173.25 176.25 191.25
2643785 1 194.25 215.25 191.25
2701633 1 218.25 221.25 203.25
2715666 1 197.25 212.25 206.25
2715901 1 182.25 218.25 206.25
2773629 1 206.25 221.25 218.25
2773744 1 191.25 224.25 218.25
2815739 1 176.25 194.25 227.25
2830498 1 173.25 203.25 230.25
2874782 1 185.25 230.25 239.25
2888348 1 203.25 209.25 242.25
2888699 1 176.25 218.25 242.25
2888821 1 182.25 221.25 242.25
2902975 1 164.25 215.25 245.25
2904185 1 194.25 245.25 245.25
2945940 1 179.25 209.25 254.25
3063546 1 197.25 269.25 278.25
3209111 1 212.25 308.25 308.25
3222906 1 197.25 293.25 311.25
3237785 1 194.25 305.25 314.25
3237789 1 206.25 305.25 314.25
3238027 1 200.25 311.25 314.25
3251706 1 197.25 293.25 317.25
3252189 1 206.25 305.25 317.25
3252667 1 200.25 317.25 317.25
3266106 1 197.25 293.25 320.25
3280866 1 197.25 302.25 323.25
3295507 1 200.25 308.25 326.25
