ITEM: TIMESTEP
87000
ITEM: NUMBER OF ATOMS
104
ITEM: BOX BOUNDS pp pp pp
0 360
0 360
0 360
ITEM: ATOMS id type x y z
439136 1 165.75 177.75 90.75
454140 1 177.75 192.75 93.75
454258 1 171.75 195.75 93.75
468535 1 162.75 192.75 96.75
468897 1 168.75 201.75 96.75
482696 1 165.75 186.75 99.75
497222 1 183.75 189.75 102.75
497223 1 186.75 189.75 102.75
511617 1 168.75 189.75 105.75
512105 1 192.75 201.75 105.75
512222 1 183.75 204.75 105.75
526023 1 186.75 189.75 108.75
526378 1 171.75 198.75 108.75
540775 1 162.75 198.75 111.75
541261 1 180.75 210.75 111.75
554572 1 153.75 183.75 114.75
554697 1 168.75 186.75 114.75
569095 1 162.75 186.75 117.75
569457 1 168.75 195.75 117.75
569458 1 171.75 195.75 117.75
583497 1 168.75 186.75 120.75
583498 1 171.75 186.75 120.75
583977 1 168.75 198.75 120.75
598137 1 168.75 192.75 123.75
598139 1 174.75 192.75 123.75
598377 1 168.75 198.75 123.75
598378 1 171.75 198.75 123.75
612653 1 156.75 195.75 126.75
626937 1 168.75 192.75 129.75
626939 1 174.75 192.75 129.75
627177 1 168.75 198.75 129.75
627298 1 171.75 201.75 129.75
641577 1 168.75 198.75 132.75
642425 1 192.75 219.75 132.75
668568 1 141.75 153.75 138.75
670975 1 162.75 213.75 138.75
697371 1 150.75 153.75 144.75
698215 1 162.75 174.75 144.75
699533 1 156.75 207.75 144.75
727007 1 138.75 174.75 150.75
727374 1 159.75 183.75 150.75
741047 1 138.75 165.75 153.75
769965 1 132.75 168.75 159.75
785576 1 165.75 198.75 162.75
785817 1 168.75 204.75 162.75
798643 1 126.75 165.75 165.75
814494 1 159.75 201.75 168.75
886851 1 150.75 210.75 183.75
929449 1 144.75 195.75 192.75
944326 1 135.75 207.75 195.75
958610 1 147.75 204.75 198.75
973018 1 171.75 204.75 201.75
973497 1 168.75 216.75 201.75
987532 1 153.75 207.75 204.75
1001810 1 147.75 204.75 207.75
1016927 1 138.75 222.75 210.75
1017050 1 147.75 225.75 210.75
1017172 1 153.75 228.75 210.75
1030849 1 144.75 210.75 213.75
1045490 1 147.75 216.75 216.75
1060014 1 159.75 219.75 219.75
1089540 1 177.75 237.75 225.75
2182136 1 167.25 194.25 95.25
2196657 1 170.25 197.25 98.25
2224861 1 182.25 182.25 104.25
2225336 1 167.25 194.25 104.25
2239855 1 164.25 197.25 107.25
2254016 1 167.25 191.25 110.25
2254017 1 170.25 191.25 110.25
2254022 1 185.25 191.25 110.25
2254255 1 164.25 197.25 110.25
2268419 1 176.25 191.25 113.25
2282815 1 164.25 191.25 116.25
2282820 1 179.25 191.25 116.25
2282935 1 164.25 194.25 116.25
2283777 1 170.25 215.25 116.25
2311737 1 170.25 194.25 122.25
2325899 1 176.25 188.25 125.25
2326137 1 170.25 194.25 125.25
2326138 1 173.25 194.25 125.25
2326377 1 170.25 200.25 125.25
2340777 1 170.25 200.25 128.25
2340897 1 170.25 203.25 128.25
2340898 1 173.25 203.25 128.25
2397657 1 170.25 182.25 140.25
2399100 1 179.25 218.25 140.25
2440484 1 131.25 173.25 149.25
2441813 1 158.25 206.25 149.25
2469046 1 137.25 167.25 155.25
2469167 1 140.25 170.25 155.25
2471220 1 179.25 221.25 155.25
2483567 1 140.25 170.25 158.25
2498208 1 143.25 176.25 161.25
2599249 1 146.25 182.25 182.25
2643412 1 155.25 206.25 191.25
2643648 1 143.25 212.25 191.25
2701247 1 140.25 212.25 203.25
2715539 1 176.25 209.25 206.25
2744445 1 134.25 212.25 212.25
2745170 1 149.25 230.25 212.25
2773368 1 143.25 215.25 218.25
2788858 1 173.25 242.25 221.25
2788859 1 176.25 242.25 221.25
2803018 1 173.25 236.25 224.25
