ITEM: TIMESTEP
89000
ITEM: NUMBER OF ATOMS
59
ITEM: BOX BOUNDS pp pp pp
0 360
0 360
0 360
ITEM: ATOMS id type x y z
624777 1 168.75 138.75 129.75
639057 1 168.75 135.75 132.75
639178 1 171.75 138.75 132.75
653935 1 162.75 147.75 135.75
654910 1 207.75 171.75 135.75
655030 1 207.75 174.75 135.75
682862 1 183.75 150.75 141.75
683469 1 204.75 165.75 141.75
684302 1 183.75 186.75 141.75
697009 1 144.75 144.75 144.75
697512 1 213.75 156.75 144.75
698589 1 204.75 183.75 144.75
712020 1 177.75 159.75 147.75
726188 1 201.75 153.75 150.75
740706 1 195.75 156.75 153.75
741063 1 186.75 165.75 153.75
741185 1 192.75 168.75 153.75
741289 1 144.75 171.75 153.75
741295 1 162.75 171.75 153.75
741533 1 156.75 177.75 153.75
754608 1 141.75 144.75 156.75
781411 1 270.75 93.75 162.75
796288 1 261.75 105.75 165.75
798895 1 162.75 171.75 165.75
810687 1 258.75 105.75 168.75
812696 1 165.75 156.75 168.75
856135 1 162.75 162.75 177.75
897440 1 237.75 114.75 186.75
941482 1 243.75 135.75 195.75
955886 1 255.75 135.75 198.75
2325187 1 200.25 170.25 125.25
2338139 1 176.25 134.25 128.25
2352417 1 170.25 131.25 131.25
2352537 1 170.25 134.25 131.25
2354221 1 182.25 176.25 131.25
2367177 1 170.25 140.25 134.25
2368508 1 203.25 173.25 134.25
2381818 1 173.25 146.25 137.25
2382547 1 200.25 164.25 137.25
2382908 1 203.25 173.25 137.25
2396945 1 194.25 164.25 140.25
2410858 1 173.25 152.25 143.25
2411826 1 197.25 176.25 143.25
2411828 1 203.25 176.25 143.25
2439906 1 197.25 158.25 149.25
2440012 1 155.25 161.25 149.25
2440502 1 185.25 173.25 149.25
2454308 1 203.25 158.25 152.25
2454416 1 167.25 161.25 152.25
2454543 1 188.25 164.25 152.25
2483001 1 242.25 155.25 158.25
2509889 1 266.25 107.25 164.25
2511896 1 167.25 158.25 164.25
2525818 1 173.25 146.25 167.25
2570332 1 155.25 179.25 176.25
2596760 1 239.25 119.25 182.25
2597936 1 167.25 149.25 182.25
2683888 1 263.25 137.25 200.25
2699240 1 239.25 161.25 203.25
