ITEM: TIMESTEP
89440
ITEM: NUMBER OF ATOMS
82
ITEM: BOX BOUNDS pp pp pp
0 360
0 360
0 360
ITEM: ATOMS id type x y z c_myKE c_myPE
2322662 1 187.802 103.643 117.641 0 -6.2545
739498 1 173.802 125.96 151.484 0 -6.25762
2483574 1 161.152 170.632 157.88 0 -6.8231
812828 1 203.847 162.388 167.362 0 -8.36408
813305 1 197.429 171.979 167.539 0 -7.5459
827349 1 207.037 159.255 170.468 0 -7.8711
2555348 1 203.874 162.502 170.5 0 -8.79982
2526546 1 203.879 165.588 170.534 0 -8.8177
2541067 1 200.744 168.767 170.596 0 -8.57671
2541186 1 200.772 171.896 170.566 0 -8.82928
2541426 1 200.835 175.031 170.614 0 -8.52849
2569142 1 184.473 148.154 175.088 0 -6.25874
2569748 1 207.074 162.449 173.684 0 -8.02874
2569866 1 203.905 165.615 173.671 0 -8.8292
827828 1 200.777 171.968 173.685 0 -8.83961
856507 1 200.779 175.084 173.714 0 -8.8384
856626 1 197.494 178.223 173.713 0 -8.12007
2583201 1 247.159 136.785 176.983 0 -6.25622
2584030 1 203.912 165.632 176.804 0 -8.37998
856508 1 203.9 168.658 176.819 0 -8.43299
2584626 1 200.759 175.127 176.808 0 -8.87097
856868 1 200.764 178.212 176.818 0 -8.55585
856628 1 203.866 172.048 179.995 0 -8.55059
2584507 1 203.881 175.106 180.009 0 -8.86716
2599266 1 200.737 181.475 180.078 0 -8.46728
857227 1 200.718 184.609 180.108 0 -8.1628
871867 1 197.403 190.905 180.992 0 -7.24007
2599026 1 200.801 181.252 183.187 0 -8.28333
914109 1 205.701 170.458 188.003 0 -6.73706
914827 1 200.512 188.115 186.349 0 -6.62933
2659023 1 186.682 241.981 194.073 0 -7.40352
931024 1 189.598 242.049 197.548 0 -7.3414
2756005 1 257.966 136.777 216.511 0 -6.25447
2757922 1 250.357 189.751 216.506 0 -6.25683
2786113 1 219.689 173.794 221.655 0 -6.25824
699666 1 197.76 213.691 141.541 0 -6.25564
755575 1 162.738 168.861 156.11 0 -6.54347
812709 1 203.901 159.411 167.235 0 -7.93546
827228 1 205.345 157.635 168.999 0 -8.10701
812949 1 205.425 160.854 168.972 0 -8.68168
827348 1 202.273 164.102 168.913 0 -8.3829
827588 1 202.286 167.127 168.946 0 -8.41188
813186 1 199.205 170.353 168.95 0 -8.30271
813306 1 199.137 173.55 169.095 0 -8.4595
827230 1 205.458 160.854 172.135 0 -8.65695
841868 1 205.46 163.996 172.112 0 -8.79816
827467 1 202.337 167.212 172.113 0 -8.83473
827587 1 202.348 170.323 172.152 0 -8.84286
842585 1 199.156 176.598 172.094 0 -8.49735
2555346 1 205.5 163.985 175.256 0 -8.41567
841867 1 200.739 165.814 176.752 0 -8.82201
842228 1 202.351 170.366 175.294 0 -8.83535
2569986 1 202.357 173.484 175.304 0 -8.87411
856867 1 199.173 176.699 175.219 0 -8.77121
2570465 1 199.172 179.863 175.327 0 -8.17996
844023 1 186.226 221.29 175.386 0 -6.25953
870908 1 202.333 170.356 178.458 0 -8.7204
856627 1 202.315 173.548 178.39 0 -8.82571
842227 1 202.326 176.682 178.417 0 -8.8243
856988 1 202.3 179.847 178.441 0 -8.61222
871145 1 199.058 182.996 178.544 0 -7.93958
885189 1 205.259 170.313 181.562 0 -7.66326
870909 1 205.459 173.472 181.698 0 -8.71782
2613306 1 202.298 176.746 181.516 0 -8.81118
2570109 1 205.411 176.669 181.617 0 -8.47166
871508 1 202.325 179.827 181.522 0 -8.50501
2599265 1 194.238 187.838 182.027 0 -7.02101
885429 1 205.334 173.754 184.807 0 -7.97532
2598909 1 202.374 176.662 184.705 0 -8.01449
885788 1 202.182 183.302 184.799 0 -7.19326
2628306 1 199.032 186.014 184.783 0 -7.89549
2599746 1 195.699 192.648 186.28 0 -6.58393
929095 1 160.66 186.194 194.559 0 -6.25678
945544 1 188.366 243.93 195.799 0 -7.16598
2659263 1 191.342 243.628 195.915 0 -7.5956
959702 1 184.988 240.356 199 0 -6.58873
960064 1 191.484 246.951 199.063 0 -6.74174
946490 1 146.68 264.718 197.725 0 -6.25481
988736 1 163.873 242.39 205.359 0 -6.25417
1017308 1 202.021 233.917 210.847 0 -6.78619
1031588 1 202.019 229.992 214.774 0 -6.78626
1017426 1 198.097 233.912 214.771 0 -6.79951
