ITEM: TIMESTEP
92000
ITEM: NUMBER OF ATOMS
88
ITEM: BOX BOUNDS pp pp pp
0 360
0 360
0 360
ITEM: ATOMS id type x y z
109641 1 240.75 219.75 21.75
110245 1 252.75 234.75 21.75
110489 1 264.75 240.75 21.75
124044 1 249.75 219.75 24.75
124284 1 249.75 225.75 24.75
124645 1 252.75 234.75 24.75
181761 1 240.75 222.75 36.75
182244 1 249.75 234.75 36.75
182245 1 252.75 234.75 36.75
182610 1 267.75 243.75 36.75
196165 1 252.75 222.75 39.75
239241 1 240.75 219.75 48.75
310286 1 255.75 195.75 63.75
397278 1 231.75 210.75 81.75
440004 1 249.75 198.75 90.75
454525 1 252.75 201.75 93.75
512596 1 225.75 213.75 105.75
669210 1 267.75 168.75 138.75
682258 1 171.75 135.75 141.75
683235 1 222.75 159.75 141.75
683711 1 210.75 171.75 141.75
697009 1 144.75 144.75 144.75
697981 1 180.75 168.75 144.75
698826 1 195.75 189.75 144.75
698827 1 198.75 189.75 144.75
725338 1 171.75 132.75 150.75
725455 1 162.75 135.75 150.75
726537 1 168.75 162.75 150.75
726555 1 222.75 162.75 150.75
727741 1 180.75 192.75 150.75
739381 1 180.75 123.75 153.75
741542 1 183.75 177.75 153.75
741661 1 180.75 180.75 153.75
752935 1 162.75 102.75 156.75
753658 1 171.75 120.75 156.75
753776 1 165.75 123.75 156.75
754017 1 168.75 129.75 156.75
754259 1 174.75 135.75 156.75
768176 1 165.75 123.75 159.75
768773 1 156.75 138.75 159.75
784632 1 213.75 174.75 162.75
797575 1 162.75 138.75 165.75
1823485 1 254.25 227.25 20.25
1837883 1 248.25 227.25 23.25
1852163 1 248.25 224.25 26.25
1852164 1 251.25 224.25 26.25
1852283 1 248.25 227.25 26.25
1852284 1 251.25 227.25 26.25
1866203 1 248.25 215.25 29.25
1866564 1 251.25 224.25 29.25
1866802 1 245.25 230.25 29.25
1880843 1 248.25 221.25 32.25
1881087 1 260.25 227.25 32.25
1882047 1 260.25 251.25 32.25
1895242 1 245.25 221.25 35.25
1895243 1 248.25 221.25 35.25
1895484 1 251.25 227.25 35.25
1895485 1 254.25 227.25 35.25
1910124 1 251.25 233.25 38.25
1937722 1 245.25 203.25 44.25
1938323 1 248.25 218.25 44.25
1938683 1 248.25 227.25 44.25
2139558 1 233.25 209.25 86.25
2268437 1 230.25 191.25 113.25
2268557 1 230.25 194.25 113.25
2297353 1 218.25 194.25 119.25
2369591 1 212.25 200.25 134.25
2397431 1 212.25 176.25 140.25
2397784 1 191.25 185.25 140.25
2411484 1 251.25 167.25 143.25
2411825 1 194.25 176.25 143.25
2412424 1 191.25 191.25 143.25
2425981 1 182.25 170.25 146.25
2438700 1 179.25 128.25 149.25
2438938 1 173.25 134.25 149.25
2440503 1 188.25 173.25 149.25
2452499 1 176.25 113.25 152.25
2452981 1 182.25 125.25 152.25
2467616 1 167.25 131.25 155.25
2468962 1 245.25 164.25 155.25
2481779 1 176.25 125.25 158.25
2482011 1 152.25 131.25 158.25
2482015 1 164.25 131.25 158.25
2482375 1 164.25 140.25 158.25
2483222 1 185.25 161.25 158.25
2497862 1 185.25 167.25 161.25
2526061 1 182.25 152.25 167.25
2540332 1 155.25 149.25 170.25
