ITEM: TIMESTEP
89000
ITEM: NUMBER OF ATOMS
63
ITEM: BOX BOUNDS pp pp pp
0 360
0 360
0 360
ITEM: ATOMS id type x y z
697380 1 177.75 153.75 144.75
726178 1 171.75 153.75 150.75
740576 1 165.75 153.75 153.75
769258 1 171.75 150.75 159.75
784016 1 165.75 159.75 162.75
798176 1 165.75 153.75 165.75
798539 1 174.75 162.75 165.75
840898 1 171.75 141.75 174.75
841622 1 183.75 159.75 174.75
841623 1 186.75 159.75 174.75
855424 1 189.75 144.75 177.75
855788 1 201.75 153.75 177.75
855908 1 201.75 156.75 177.75
856022 1 183.75 159.75 177.75
869711 1 210.75 141.75 180.75
869942 1 183.75 147.75 180.75
884580 1 177.75 153.75 183.75
884581 1 180.75 153.75 183.75
884703 1 186.75 156.75 183.75
884818 1 171.75 159.75 183.75
898984 1 189.75 153.75 186.75
899580 1 177.75 168.75 186.75
913631 1 210.75 159.75 189.75
913734 1 159.75 162.75 189.75
913862 1 183.75 165.75 189.75
942180 1 177.75 153.75 195.75
957063 1 186.75 165.75 198.75
987530 1 147.75 207.75 204.75
1015137 1 168.75 177.75 210.75
1032056 1 165.75 240.75 213.75
1044406 1 135.75 189.75 216.75
1088573 1 156.75 213.75 225.75
2468461 1 182.25 152.25 155.25
2501108 1 203.25 248.25 161.25
2526179 1 176.25 155.25 167.25
2526301 1 182.25 158.25 167.25
2540214 1 161.25 146.25 170.25
2540936 1 167.25 164.25 170.25
2555578 1 173.25 170.25 173.25
2569739 1 176.25 164.25 176.25
2583665 1 194.25 152.25 179.25
2598062 1 185.25 152.25 182.25
2598063 1 188.25 152.25 182.25
2598064 1 191.25 152.25 182.25
2598304 1 191.25 158.25 182.25
2612700 1 179.25 158.25 185.25
2613304 1 191.25 173.25 185.25
2627341 1 182.25 164.25 188.25
2628635 1 104.25 197.25 188.25
2643784 1 191.25 215.25 191.25
2656245 1 134.25 167.25 194.25
2658651 1 152.25 227.25 194.25
2670784 1 191.25 170.25 197.25
2687695 1 164.25 233.25 200.25
2699339 1 176.25 164.25 203.25
2700288 1 143.25 188.25 203.25
2700289 1 146.25 188.25 203.25
2701122 1 125.25 209.25 203.25
2714335 1 164.25 179.25 206.25
2729929 1 146.25 209.25 209.25
2743254 1 161.25 182.25 212.25
2760176 1 167.25 245.25 215.25
2845131 1 152.25 209.25 233.25
