ITEM: TIMESTEP
87000
ITEM: NUMBER OF ATOMS
72
ITEM: BOX BOUNDS pp pp pp
0 360
0 360
0 360
ITEM: ATOMS id type x y z
740084 1 129.75 141.75 153.75
783402 1 123.75 144.75 162.75
783525 1 132.75 147.75 162.75
799009 1 144.75 174.75 165.75
812449 1 144.75 150.75 168.75
826124 1 129.75 132.75 171.75
826966 1 135.75 153.75 171.75
841735 1 162.75 162.75 174.75
855168 1 141.75 138.75 177.75
855292 1 153.75 141.75 177.75
855531 1 150.75 147.75 177.75
855762 1 123.75 153.75 177.75
856609 1 144.75 174.75 177.75
856872 1 213.75 180.75 177.75
857597 1 228.75 198.75 177.75
870772 1 153.75 168.75 180.75
870892 1 153.75 171.75 180.75
884692 1 153.75 156.75 183.75
898128 1 141.75 132.75 186.75
899696 1 165.75 171.75 186.75
912894 1 159.75 141.75 189.75
913496 1 165.75 156.75 189.75
927292 1 153.75 141.75 192.75
927409 1 144.75 144.75 192.75
942051 1 150.75 150.75 195.75
955730 1 147.75 132.75 198.75
972539 1 174.75 192.75 201.75
985498 1 171.75 156.75 204.75
2395245 1 134.25 122.25 140.25
2423323 1 128.25 104.25 146.25
2468570 1 149.25 155.25 155.25
2482970 1 149.25 155.25 158.25
2496766 1 137.25 140.25 161.25
2497127 1 140.25 149.25 161.25
2498569 1 146.25 185.25 161.25
2510565 1 134.25 125.25 164.25
2525081 1 122.25 128.25 167.25
2525681 1 122.25 143.25 167.25
2526893 1 158.25 173.25 167.25
2527009 1 146.25 176.25 167.25
2540203 1 128.25 146.25 170.25
2540568 1 143.25 155.25 170.25
2554610 1 149.25 146.25 173.25
2554851 1 152.25 152.25 173.25
2555212 1 155.25 161.25 173.25
2555448 1 143.25 167.25 173.25
2555813 1 158.25 176.25 173.25
2568654 1 161.25 137.25 176.25
2569240 1 119.25 152.25 176.25
2569613 1 158.25 161.25 176.25
2570471 1 212.25 182.25 176.25
2583040 1 119.25 137.25 179.25
2583759 1 116.25 155.25 179.25
2583889 1 146.25 158.25 179.25
2584371 1 152.25 170.25 179.25
2598411 1 152.25 161.25 182.25
2599033 1 218.25 176.25 182.25
2599151 1 212.25 179.25 182.25
2611851 1 152.25 137.25 185.25
2612454 1 161.25 152.25 185.25
2612692 1 155.25 158.25 185.25
2613293 1 158.25 173.25 185.25
2613910 1 209.25 188.25 185.25
2626850 1 149.25 152.25 188.25
2628072 1 215.25 182.25 188.25
2628549 1 206.25 194.25 188.25
2642473 1 218.25 182.25 191.25
2656136 1 167.25 164.25 194.25
2670778 1 173.25 170.25 197.25
2684579 1 176.25 155.25 200.25
2700068 1 203.25 182.25 203.25
2727788 1 203.25 155.25 209.25
