ITEM: TIMESTEP
87203
ITEM: NUMBER OF ATOMS
79
ITEM: BOX BOUNDS pp pp pp
0 360
0 360
0 360
ITEM: ATOMS id type x y z
582053 1 156.75 150.75 120.75
668811 1 150.75 159.75 138.75
682736 1 165.75 147.75 141.75
683214 1 159.75 159.75 141.75
697138 1 171.75 147.75 144.75
697377 1 168.75 153.75 144.75
697735 1 162.75 162.75 144.75
712015 1 162.75 159.75 147.75
712016 1 165.75 159.75 147.75
712135 1 162.75 162.75 147.75
712136 1 165.75 162.75 147.75
712256 1 165.75 165.75 147.75
712374 1 159.75 168.75 147.75
726298 1 171.75 156.75 150.75
726418 1 171.75 159.75 150.75
726656 1 165.75 165.75 150.75
739493 1 156.75 126.75 153.75
741534 1 159.75 177.75 153.75
742380 1 177.75 198.75 153.75
754490 1 147.75 141.75 156.75
754491 1 150.75 141.75 156.75
755328 1 141.75 162.75 156.75
769974 1 159.75 168.75 159.75
784376 1 165.75 168.75 162.75
799615 1 162.75 189.75 165.75
827697 1 168.75 171.75 171.75
856494 1 159.75 171.75 177.75
856495 1 162.75 171.75 177.75
856855 1 162.75 180.75 177.75
900780 1 177.75 198.75 186.75
958863 1 186.75 210.75 198.75
987057 1 168.75 195.75 204.75
987184 1 189.75 198.75 204.75
1089416 1 165.75 234.75 225.75
2339816 1 167.25 176.25 128.25
2353623 1 188.25 161.25 131.25
2397295 1 164.25 173.25 140.25
2410498 1 173.25 143.25 143.25
2410855 1 164.25 152.25 143.25
2411097 1 170.25 158.25 143.25
2411214 1 161.25 161.25 143.25
2411215 1 164.25 161.25 143.25
2411334 1 161.25 164.25 143.25
2411335 1 164.25 164.25 143.25
2411452 1 155.25 167.25 143.25
2412056 1 167.25 182.25 143.25
2424898 1 173.25 143.25 146.25
2425371 1 152.25 155.25 146.25
2425614 1 161.25 161.25 146.25
2425615 1 164.25 161.25 146.25
2425735 1 164.25 164.25 146.25
2426338 1 173.25 179.25 146.25
2439901 1 182.25 158.25 149.25
2440014 1 161.25 161.25 149.25
2440015 1 164.25 161.25 149.25
2440134 1 161.25 164.25 149.25
2440135 1 164.25 164.25 149.25
2441339 1 176.25 194.25 149.25
2453211 1 152.25 131.25 152.25
2454896 1 167.25 173.25 152.25
2456454 1 161.25 212.25 152.25
2468811 1 152.25 161.25 155.25
2497730 1 149.25 164.25 161.25
2526654 1 161.25 167.25 167.25
2527616 1 167.25 191.25 167.25
2541421 1 182.25 176.25 170.25
2555695 1 164.25 173.25 173.25
2555921 1 122.25 179.25 173.25
2572139 1 176.25 224.25 176.25
2584972 1 155.25 185.25 179.25
2627682 1 125.25 173.25 188.25
2700773 1 158.25 200.25 203.25
2700777 1 170.25 200.25 203.25
2715185 1 194.25 200.25 206.25
2759576 1 167.25 230.25 215.25
2802768 1 143.25 230.25 224.25
2815965 1 134.25 200.25 227.25
2816445 1 134.25 212.25 227.25
2933808 1 143.25 266.25 251.25
