ITEM: TIMESTEP
87203
ITEM: NUMBER OF ATOMS
79
ITEM: BOX BOUNDS pp pp pp
0 360
0 360
0 360
ITEM: ATOMS id type x y z c_myKE c_myPE
2353611 1 151.515 152.726 129.165 0 -6.25457
2412768 1 139.997 202.516 139.975 0 -6.25298
2456215 1 164.286 208.893 148.301 0 -6.26414
2497121 1 117.837 146.237 159.27 0 -6.53995
2497021 1 183.408 141.86 161.095 0 -6.25611
799738 1 169.133 190.496 163.79 0 -7.7786
785337 1 167.441 197.644 165.6 0 -8.35031
811980 1 178.278 133.552 168.551 0 -6.83286
2542016 1 162.055 194.663 167.328 0 -8.14207
2542137 1 163.767 196.608 167.465 0 -8.08344
828296 1 170.776 197.614 168.922 0 -8.49384
2556536 1 170.691 200.71 168.904 0 -8.51349
2539368 1 139.995 125.956 170.62 0 -6.25182
814135 1 165.711 194.664 170.996 0 -8.20362
2556543 1 188.134 194.126 171.785 0 -6.81426
2556778 1 173.776 200.788 172.11 0 -8.75907
2571063 1 187.914 197.231 174.987 0 -6.65789
2556780 1 177.064 203.887 175.131 0 -8.29442
2571178 1 173.649 200.672 178.431 0 -8.14873
2629258 1 175.036 209.822 191.064 0 -6.86892
2656735 1 163.65 180.204 196.216 0 -6.78944
2671014 1 160.809 177.024 199.376 0 -7.37902
2685415 1 164.328 176.949 202.515 0 -7.07905
2699328 1 141.948 164.216 205.719 0 -6.26126
2831318 1 106.856 226.067 232.454 0 -6.25248
2903797 1 104.922 240.767 248.413 0 -6.8214
2918198 1 108.179 240.881 251.667 0 -6.54282
2947364 1 127.122 248.523 259.796 0 -6.60969
2961644 1 127.208 245.165 262.981 0 -7.50275
2961645 1 130.318 245.311 263.187 0 -7.03268
496726 1 132.016 176.653 98.8627 0 -6.25244
639190 1 210.523 135.176 130.766 0 -6.25254
654427 1 200.968 157.501 133.95 0 -6.25504
699436 1 229.675 205.324 141.568 0 -6.25083
696544 1 189.441 128.79 143.512 0 -6.25292
754257 1 169.044 133.967 156.25 0 -6.29854
769241 1 116.066 147.82 157.501 0 -6.82198
770938 1 170.768 195.989 160.195 0 -7.94515
781848 1 138.395 102.037 162.65 0 -6.25252
785216 1 162.414 191.103 163.614 0 -8.17472
2484656 1 169.127 192.386 161.938 0 -8.1899
2513337 1 172.737 195.961 161.941 0 -7.94651
797460 1 178.656 133.933 165.959 0 -6.83757
799496 1 162.343 189.183 165.429 0 -7.77468
2513215 1 160.512 191.05 165.47 0 -8.02142
785698 1 169.327 199.299 167.022 0 -8.11532
814378 1 172.227 202.254 167.221 0 -8.07872
2541776 1 169.692 192.716 169.144 0 -7.75614
814252 1 152.916 195.657 168.991 0 -6.34128
857338 1 170.256 195.041 168.157 0 -8.08914
828658 1 172.273 196.022 170.459 0 -7.95424
828657 1 172.245 199.189 170.528 0 -8.69812
2556657 1 172.243 202.314 170.441 0 -8.72082
828656 1 175.339 202.361 170.515 0 -8.50419
828778 1 172.234 205.469 170.389 0 -7.99579
814720 1 114.817 210.493 169.023 0 -6.25156
842696 1 165.728 192.767 172.839 0 -8.15379
2570939 1 172.318 199.135 173.698 0 -8.40945
2556900 1 175.347 202.399 173.673 0 -8.6849
2542498 1 175.372 205.585 173.682 0 -8.14162
2599859 1 172.242 202.293 176.742 0 -8.41335
872100 1 175.379 202.374 176.853 0 -8.46506
872337 1 175.313 208.452 180.16 0 -6.77275
872217 1 170.288 202.042 186.393 0 -7.8638
872340 1 173.601 205.416 186.128 0 -7.97412
2629019 1 176.601 208.143 185.934 0 -7.46603
2614620 1 171.928 207.493 189.672 0 -8.1529
2643416 1 172.068 205.731 191.657 0 -8.13655
928854 1 159.433 181.824 194.427 0 -6.75142
941705 1 194.69 140.195 197.647 0 -6.57206
943134 1 159.336 178.57 197.667 0 -7.31675
943135 1 162.426 178.674 198.04 0 -7.98331
943255 1 162.322 181.746 197.928 0 -7.59375
956104 1 191.32 140.194 201.011 0 -6.56576
956225 1 194.64 143.502 200.969 0 -7.51507
957774 1 159.802 184.741 200.741 0 -6.63474
2816819 1 181.955 226.346 229.541 0 -6.53578
1103461 1 182.964 230.939 234.133 0 -6.53494
1233645 1 128.949 243.554 261.474 0 -7.08529
