ITEM: TIMESTEP
99000
ITEM: NUMBER OF ATOMS
73
ITEM: BOX BOUNDS pp pp pp
0 360
0 360
0 360
ITEM: ATOMS id type x y z
697009 1 144.75 144.75 144.75
783651 1 150.75 150.75 162.75
855416 1 165.75 144.75 177.75
869698 1 171.75 141.75 180.75
1129626 1 195.75 159.75 234.75
1228758 1 231.75 117.75 255.75
1228886 1 255.75 120.75 255.75
1258048 1 261.75 129.75 261.75
1258523 1 246.75 141.75 261.75
1286494 1 279.75 120.75 267.75
1300770 1 267.75 117.75 270.75
1330520 1 237.75 141.75 276.75
1330643 1 246.75 144.75 276.75
1345038 1 231.75 144.75 279.75
1358843 1 246.75 129.75 282.75
1358844 1 249.75 129.75 282.75
1359087 1 258.75 135.75 282.75
1373484 1 249.75 135.75 285.75
1387762 1 243.75 132.75 288.75
1388004 1 249.75 138.75 288.75
1388121 1 240.75 141.75 288.75
1402404 1 249.75 138.75 291.75
1402406 1 255.75 138.75 291.75
1402639 1 234.75 144.75 291.75
1416441 1 240.75 129.75 294.75
1431205 1 252.75 138.75 297.75
1461084 1 249.75 165.75 303.75
1475486 1 255.75 165.75 306.75
1475491 1 270.75 165.75 306.75
1489047 1 258.75 144.75 309.75
1517730 1 267.75 141.75 315.75
2497251 1 152.25 152.25 161.25
2669820 1 179.25 146.25 197.25
2799301 1 182.25 143.25 224.25
2814307 1 200.25 158.25 227.25
2872508 1 203.25 173.25 239.25
2872628 1 203.25 176.25 239.25
2915347 1 200.25 164.25 248.25
2915467 1 200.25 167.25 248.25
2928318 1 233.25 128.25 251.25
3014962 1 245.25 134.25 269.25
3028170 1 269.25 104.25 272.25
3043047 1 260.25 116.25 275.25
3043164 1 251.25 119.25 275.25
3043284 1 251.25 122.25 275.25
3058048 1 263.25 131.25 278.25
3072446 1 257.25 131.25 281.25
3073168 1 263.25 149.25 281.25
3086842 1 245.25 131.25 284.25
3086962 1 245.25 134.25 284.25
3087198 1 233.25 140.25 284.25
3087561 1 242.25 149.25 284.25
3101602 1 245.25 140.25 287.25
3115765 1 254.25 134.25 290.25
3116005 1 254.25 140.25 290.25
3116361 1 242.25 149.25 290.25
3130645 1 254.25 146.25 293.25
3130880 1 239.25 152.25 293.25
3144560 1 239.25 134.25 296.25
3145045 1 254.25 146.25 296.25
3145764 1 251.25 164.25 296.25
3159564 1 251.25 149.25 299.25
3174203 1 248.25 155.25 302.25
3188123 1 248.25 143.25 305.25
3188243 1 248.25 146.25 305.25
3188603 1 248.25 155.25 305.25
3203134 1 281.25 158.25 308.25
3216928 1 263.25 143.25 311.25
3217048 1 263.25 146.25 311.25
3217647 1 260.25 161.25 311.25
3217886 1 257.25 167.25 311.25
3232165 1 254.25 164.25 314.25
3348565 1 254.25 194.25 338.25
