ITEM: TIMESTEP
87000
ITEM: NUMBER OF ATOMS
51
ITEM: BOX BOUNDS pp pp pp
0 360
0 360
0 360
ITEM: ATOMS id type x y z c_myKE c_myPE
2123910 1 82.6571 178.201 76.4631 0.0227908 -6.61459
2224152 1 218.44 162.184 98.8867 0.180062 -6.13926
2226865 1 66.6653 237.656 98.8464 0.212394 -6.04949
584322 1 110.243 213.415 117.638 0.531403 -7.96225
584677 1 113.216 213.369 118.035 0.289213 -7.62031
2312678 1 110.011 213.493 121.046 0.0979327 -8.4388
2297922 1 116.462 216.793 120.98 0.225352 -8.22428
2312198 1 110.113 213.358 124.208 0.121189 -8.51497
2341122 1 116.353 213.405 127.574 0.0511872 -8.25329
2342213 1 155.914 240.832 126.013 0.327532 -6.8559
2342332 1 152.805 243.898 126.228 0.29687 -7.07761
2370038 1 110.156 213.65 130.431 0.0356437 -7.6997
2453572 1 151.41 138.483 151.361 0.452717 -6.31535
2468825 1 194.424 158.778 152.833 0.107649 -7.1836
2483225 1 194.101 159.093 155.969 0.0954082 -7.37536
769624 1 193.178 157.168 157.757 0.0600885 -7.07381
2569362 1 119.683 152.775 175.578 0.081695 -6.4296
455320 1 112.901 224.353 87.3179 0.175487 -6.7631
498649 1 143.515 228.043 98.7515 0.0537057 -5.9015
542306 1 70.1157 242.525 106.507 0.0361419 -6.61779
568971 1 148.28 182.98 114.677 0.147147 -6.06206
613120 1 108.577 212.22 119.37 0.0961196 -7.59237
555879 1 114.848 215.114 119.429 0.0360212 -7.84595
611335 1 162.81 162.5 121.183 0.12328 -5.33665
627518 1 108.41 211.853 122.527 0.106526 -8.16452
598720 1 111.711 214.996 122.667 0.184807 -8.51725
2326839 1 114.921 215.16 122.63 0.292246 -8.62608
2355880 1 117.991 215.07 122.593 0.130926 -8.43833
2341484 1 121.284 214.84 122.794 0.0413143 -8.05138
2341480 1 118.026 218.282 122.701 0.0188309 -8.04661
625259 1 173.662 152.993 124.559 0.137764 -7.00101
641920 1 111.512 208.464 125.734 0.0667052 -7.62257
2312317 1 108.424 211.95 125.699 0.112734 -8.05091
2312319 1 111.802 211.991 126.024 0.0435735 -8.22438
612879 1 114.75 211.769 125.805 0.1948 -8.51119
2355398 1 111.845 215.046 125.632 0.114576 -8.27808
2355399 1 115.032 215.067 125.894 0.100092 -8.56441
613363 1 118.059 215.089 125.928 0.0574426 -8.27189
627763 1 118.186 215.022 129.01 0.263434 -8.00855
683696 1 164.013 173.188 132.181 0.0421904 -6.0664
668824 1 188.324 159.24 137.05 0.0833685 -6.62944
2410612 1 153.438 146.553 140.087 0.173011 -5.71693
697624 1 191.349 159.163 140.175 0.292663 -7.59793
683223 1 188.404 162.24 140.08 0.130817 -6.5829
712159 1 238.817 162.53 146.646 0.014941 -5.95614
755226 1 196.085 157.371 154.556 0.100845 -7.48652
2497623 1 188.422 159.657 156.294 0.256683 -6.75422
2468824 1 191.354 158.492 156.753 0.279759 -7.3434
801160 1 113.066 230.802 166.349 0.065973 -6.4018
827328 1 137.132 164.048 173.487 0.025089 -6.4013
854949 1 205.603 128.659 178.655 0.131517 -6.16534
