ITEM: TIMESTEP
87000
ITEM: NUMBER OF ATOMS
51
ITEM: BOX BOUNDS pp pp pp
0 360
0 360
0 360
ITEM: ATOMS id type x y z
395910 1 87.75 177.75 81.75
496153 1 216.75 162.75 102.75
498985 1 72.75 234.75 102.75
584439 1 114.75 210.75 120.75
584440 1 117.75 210.75 120.75
598839 1 114.75 210.75 123.75
598961 1 120.75 213.75 123.75
613239 1 114.75 210.75 126.75
627641 1 120.75 210.75 129.75
628733 1 156.75 237.75 129.75
628852 1 153.75 240.75 129.75
642039 1 114.75 210.75 132.75
740092 1 153.75 141.75 153.75
740825 1 192.75 159.75 153.75
755225 1 192.75 159.75 156.75
769625 1 192.75 159.75 159.75
841362 1 123.75 153.75 174.75
2168799 1 116.25 221.25 92.25
2226529 1 146.25 224.25 104.25
2255906 1 77.25 239.25 110.25
2296850 1 149.25 182.25 119.25
2312318 1 113.25 209.25 122.25
2312440 1 119.25 212.25 122.25
2324935 1 164.25 164.25 125.25
2326718 1 113.25 209.25 125.25
2326839 1 116.25 212.25 125.25
2326840 1 119.25 212.25 125.25
2326841 1 122.25 212.25 125.25
2326842 1 125.25 212.25 125.25
2326961 1 122.25 215.25 125.25
2338978 1 173.25 155.25 128.25
2340999 1 116.25 206.25 128.25
2341118 1 113.25 209.25 128.25
2341119 1 116.25 209.25 128.25
2341120 1 119.25 209.25 128.25
2341239 1 116.25 212.25 128.25
2341240 1 119.25 212.25 128.25
2341241 1 122.25 212.25 128.25
2355641 1 122.25 212.25 131.25
2368495 1 164.25 173.25 134.25
2396823 1 188.25 161.25 140.25
2410732 1 155.25 149.25 143.25
2411224 1 191.25 161.25 143.25
2411343 1 188.25 164.25 143.25
2440159 1 236.25 164.25 149.25
2468705 1 194.25 158.25 155.25
2483223 1 188.25 161.25 158.25
2483224 1 191.25 161.25 158.25
2529039 1 116.25 227.25 167.25
2555327 1 140.25 164.25 173.25
2582828 1 203.25 131.25 179.25
