ITEM: TIMESTEP
99205
ITEM: NUMBER OF ATOMS
64
ITEM: BOX BOUNDS pp pp pp
0 360
0 360
0 360
ITEM: ATOMS id type x y z c_myKE c_myPE
2468808 1 140.229 160.68 152.485 0 -7.0652
740929 1 140.236 158.853 154.3 0 -7.06353
2482491 1 152.517 138.609 160.929 0 -6.59104
2525330 1 148.274 133.432 165.428 0 -6.88576
2525573 1 155.841 138.791 167.717 0 -7.41689
2525693 1 155.922 141.986 167.122 0 -6.85975
2540222 1 184.586 143.097 168.616 0 -6.25407
2611738 1 178.52 128.772 181.191 0 -7.06621
2599617 1 168.717 192.674 181.55 0 -7.02388
871739 1 171.871 196.094 181.473 0 -7.5643
2600253 1 283.457 206.9 181.388 0 -6.25549
2588854 1 286.648 288.603 180.131 0 -6.25524
898020 1 177.099 126.275 184.433 0 -6.79216
2599618 1 171.826 192.953 184.517 0 -7.15415
2599858 1 173.773 197.304 183.341 0 -7.05975
2657582 1 186.51 202.445 194.135 0 -6.25631
2674528 1 269.438 267.512 197.312 0 -6.25403
2773992 1 216.35 234.274 221.521 0 -6.54801
1061378 1 296.431 259.74 222.767 0 -6.6509
1090295 1 293.077 262.943 222.873 0 -7.69143
2787425 1 194.137 206.89 224.794 0 -6.25503
2803031 1 215.336 238.866 226.113 0 -6.54846
2789615 1 293.139 262.991 225.92 0 -7.93863
2832935 1 289.971 266.118 229.462 0 -7.19002
2833265 1 194.182 277.095 232.328 0 -6.86539
2833386 1 197.303 280.508 232.562 0 -6.69766
1162530 1 273.872 263.359 238.685 0 -7.38707
2861489 1 276.993 266.127 238.699 0 -7.65286
2847210 1 277.079 263.172 242.022 0 -7.11554
2876249 1 273.918 266.092 242.118 0 -7.17739
1133119 1 240.736 251.549 245.173 0 -6.25482
2945114 1 224.796 186.511 259.885 0 -6.25432
3034150 1 210.091 259.882 279.02 0 -6.25544
3108556 1 231.109 323.605 295.096 0 -6.54672
3108677 1 234.366 326.862 294.975 0 -6.82334
3162435 1 226.032 222.728 307.745 0 -6.82567
757150 1 210.442 210.43 154.26 0 -6.2544
811731 1 147.886 130.84 165.796 0 -6.85155
797693 1 154.203 140.156 165.56 0 -7.3094
871618 1 170.36 194.314 179.584 0 -7.41366
2600236 1 227.655 210.428 182.962 0 -6.25598
872589 1 204.134 214.876 182.993 0 -6.91035
872590 1 208.581 216.897 181.612 0 -6.57222
886989 1 205.257 216.855 184.922 0 -7.52592
940016 1 163.852 93.6581 197.698 0 -6.25477
2774500 1 304.106 240.478 219.887 0 -6.62373
2788660 1 304.173 237.172 223.262 0 -7.52988
2788781 1 307.422 240.531 223.112 0 -7.05951
2789022 1 310.685 243.627 223.346 0 -6.66283
1090416 1 291.493 258.414 224.371 0 -7.51814
1061495 1 288.298 261.308 224.637 0 -7.69302
2789494 1 291.524 261.269 224.611 0 -8.07376
1090415 1 291.573 261.457 227.599 0 -8.11585
1119215 1 288.22 264.468 227.819 0 -7.72101
1105177 1 291.558 264.58 227.599 0 -7.7284
1105387 1 198.744 278.65 230.783 0 -7.03901
1076252 1 278.882 264.512 237.112 0 -6.63822
1130359 1 237.206 178.534 239.151 0 -6.25473
2847451 1 275.565 268.081 240.511 0 -7.53837
1147293 1 283.814 243.574 242.38 0 -6.25408
1422077 1 232.765 275.499 302.941 0 -6.82245
1422196 1 229.508 278.755 303.065 0 -6.5466
1434436 1 227.802 221.146 305.974 0 -6.54239
1450273 1 218.073 261.481 307.382 0 -6.25582
