ITEM: TIMESTEP
94585
ITEM: NUMBER OF ATOMS
72
ITEM: BOX BOUNDS pp pp pp
0 360
0 360
0 360
ITEM: ATOMS id type x y z
524454 1 159.75 150.75 108.75
524573 1 156.75 153.75 108.75
538853 1 156.75 150.75 111.75
554833 1 216.75 189.75 114.75
683015 1 282.75 153.75 141.75
683214 1 159.75 159.75 141.75
697295 1 282.75 150.75 144.75
698978 1 291.75 192.75 144.75
740574 1 159.75 153.75 153.75
740622 1 303.75 153.75 153.75
740695 1 162.75 156.75 153.75
744445 1 252.75 249.75 153.75
754975 1 162.75 153.75 156.75
755094 1 159.75 156.75 156.75
755855 1 282.75 174.75 156.75
768287 1 138.75 126.75 159.75
769142 1 183.75 147.75 159.75
769261 1 180.75 150.75 159.75
798694 1 279.75 165.75 165.75
814508 1 201.75 201.75 168.75
827111 1 210.75 156.75 171.75
842137 1 288.75 171.75 174.75
856657 1 288.75 174.75 177.75
870816 1 285.75 168.75 180.75
884271 1 330.75 144.75 183.75
884848 1 261.75 159.75 183.75
899247 1 258.75 159.75 186.75
899368 1 261.75 162.75 186.75
927920 1 237.75 156.75 192.75
928280 1 237.75 165.75 192.75
928400 1 237.75 168.75 192.75
942799 1 234.75 168.75 195.75
969953 1 336.75 126.75 201.75
1072523 1 246.75 171.75 222.75
1118037 1 348.75 228.75 231.75
1203343 1 306.75 201.75 249.75
1203464 1 309.75 204.75 249.75
1217744 1 309.75 201.75 252.75
2238053 1 158.25 152.25 107.25
2252333 1 158.25 149.25 110.25
2252453 1 158.25 152.25 110.25
2352067 1 200.25 122.25 131.25
2352186 1 197.25 125.25 131.25
2410774 1 281.25 149.25 143.25
2439699 1 296.25 152.25 149.25
2454100 1 299.25 152.25 152.25
2467774 1 281.25 134.25 155.25
2469281 1 122.25 173.25 155.25
2469454 1 281.25 176.25 155.25
2540590 1 209.25 155.25 170.25
2540710 1 209.25 158.25 170.25
2554989 1 206.25 155.25 173.25
2555737 1 290.25 173.25 173.25
2570016 1 287.25 170.25 176.25
2570135 1 284.25 173.25 176.25
2570136 1 287.25 173.25 176.25
2570137 1 290.25 173.25 176.25
2582352 1 215.25 119.25 179.25
2584536 1 287.25 173.25 179.25
2612727 1 260.25 158.25 185.25
2612847 1 260.25 161.25 185.25
2612848 1 263.25 161.25 185.25
2613433 1 218.25 176.25 185.25
2627832 1 215.25 176.25 188.25
2656280 1 239.25 167.25 194.25
2670560 1 239.25 164.25 197.25
2684610 1 269.25 155.25 200.25
2685213 1 278.25 170.25 200.25
2686898 1 293.25 212.25 200.25
2786123 1 248.25 173.25 221.25
2846037 1 350.25 230.25 233.25
2848189 1 326.25 284.25 233.25
