ITEM: TIMESTEP
87000
ITEM: NUMBER OF ATOMS
93
ITEM: BOX BOUNDS pp pp pp
0 360
0 360
0 360
ITEM: ATOMS id type x y z
453893 1 156.75 186.75 93.75
541729 1 144.75 222.75 111.75
556360 1 117.75 228.75 114.75
586002 1 123.75 249.75 120.75
586008 1 141.75 249.75 120.75
597412 1 153.75 174.75 123.75
614922 1 123.75 252.75 126.75
627657 1 168.75 210.75 129.75
640371 1 150.75 168.75 132.75
640491 1 150.75 171.75 132.75
644565 1 132.75 273.75 132.75
654411 1 150.75 159.75 135.75
654418 1 171.75 159.75 135.75
668568 1 141.75 153.75 138.75
669170 1 147.75 168.75 138.75
670379 1 174.75 198.75 138.75
683328 1 141.75 162.75 141.75
683333 1 156.75 162.75 141.75
683452 1 153.75 165.75 141.75
683453 1 156.75 165.75 141.75
683572 1 153.75 168.75 141.75
697488 1 141.75 156.75 144.75
697489 1 144.75 156.75 144.75
697604 1 129.75 159.75 144.75
697857 1 168.75 165.75 144.75
702642 1 123.75 285.75 144.75
712127 1 138.75 162.75 147.75
712128 1 141.75 162.75 147.75
712129 1 144.75 162.75 147.75
712253 1 156.75 165.75 147.75
712380 1 177.75 168.75 147.75
713459 1 174.75 195.75 147.75
716452 1 153.75 270.75 147.75
726411 1 150.75 159.75 150.75
726528 1 141.75 162.75 150.75
726529 1 144.75 162.75 150.75
726887 1 138.75 171.75 150.75
740563 1 126.75 153.75 153.75
741173 1 156.75 168.75 153.75
754124 1 129.75 132.75 156.75
755330 1 147.75 162.75 156.75
755696 1 165.75 171.75 156.75
768283 1 126.75 126.75 159.75
783650 1 147.75 150.75 162.75
784491 1 150.75 171.75 162.75
798769 1 144.75 168.75 165.75
798773 1 156.75 168.75 165.75
801533 1 156.75 237.75 165.75
801895 1 162.75 246.75 165.75
842929 1 144.75 192.75 174.75
914688 1 141.75 186.75 189.75
2213089 1 146.25 248.25 101.25
2256642 1 125.25 257.25 110.25
2270568 1 143.25 245.25 113.25
2271038 1 113.25 257.25 113.25
2271045 1 134.25 257.25 113.25
2284603 1 128.25 236.25 116.25
2285083 1 128.25 248.25 116.25
2285318 1 113.25 254.25 116.25
2298763 1 128.25 230.25 119.25
2353967 1 140.25 170.25 131.25
2368010 1 149.25 161.25 134.25
2382407 1 140.25 161.25 137.25
2382774 1 161.25 170.25 137.25
2397050 1 149.25 167.25 140.25
2398493 1 158.25 203.25 140.25
2411088 1 143.25 158.25 143.25
2411453 1 158.25 167.25 143.25
2425367 1 140.25 155.25 146.25
2425491 1 152.25 158.25 146.25
2425852 1 155.25 167.25 146.25
2439886 1 137.25 158.25 149.25
2439887 1 140.25 158.25 149.25
2440251 1 152.25 167.25 149.25
2440252 1 155.25 167.25 149.25
2440853 1 158.25 182.25 149.25
2443491 1 152.25 248.25 149.25
2444558 1 113.25 275.25 149.25
2455011 1 152.25 176.25 152.25
2455131 1 152.25 179.25 152.25
2457891 1 152.25 248.25 152.25
2459439 1 116.25 287.25 152.25
2468808 1 143.25 161.25 155.25
2469050 1 149.25 167.25 155.25
2469170 1 149.25 170.25 155.25
2483569 1 146.25 170.25 158.25
2497615 1 164.25 161.25 161.25
2570927 1 140.25 194.25 176.25
2585209 1 146.25 191.25 179.25
2612685 1 134.25 158.25 185.25
2655399 1 116.25 146.25 194.25
2670159 1 116.25 155.25 197.25
2699081 1 122.25 158.25 203.25
