ITEM: TIMESTEP
90654
ITEM: NUMBER OF ATOMS
122
ITEM: BOX BOUNDS pp pp pp
0 360
0 360
0 360
ITEM: ATOMS id type x y z c_myKE c_myPE
2409756 1 103.646 122.784 139.963 0 -6.25601
2425595 1 98.5129 159.188 144.902 0 -6.7637
2439875 1 97.3116 154.447 149.658 0 -6.86662
2439994 1 95.3437 158.985 148.29 0 -6.96172
2454275 1 100.545 157.783 149.372 0 -7.76199
740798 1 103.453 161.216 149.749 0 -7.32737
752562 1 117.738 87.4887 152.833 0 -7.27801
2466281 1 116.359 92.025 151.54 0 -7.8536
2466161 1 117.718 90.7362 156.068 0 -7.26091
753403 1 121.043 113.217 161.1 0 -7.09455
796722 1 116.277 114.351 165.616 0 -6.56332
2527145 1 196.16 180.246 167.405 0 -6.25451
839797 1 103.503 107.985 175.142 0 -7.05063
2567906 1 69.7786 116.396 176.998 0 -6.25289
2599958 1 110.015 200.586 183.371 0 -6.25434
911676 1 98.5591 106.94 189.7 0 -6.57875
912655 1 162.362 130.574 189.873 0 -7.58683
912415 1 164.199 128.954 191.268 0 -8.27508
2639554 1 95.3185 106.771 192.965 0 -6.83067
2654458 1 173.656 119.448 194.269 0 -7.77433
926696 1 167.359 125.832 194.472 0 -8.52457
2654697 1 170.491 125.868 194.459 0 -8.59672
926816 1 164.185 128.984 194.386 0 -8.8132
928139 1 177.048 167.519 194.15 0 -6.25065
2652764 1 127.186 72.9726 196.146 0 -6.2518
2668859 1 176.866 119.518 197.425 0 -7.94456
955618 1 167.357 125.83 197.504 0 -8.8569
2669098 1 170.482 125.806 197.572 0 -8.85757
2669097 1 164.163 129.014 197.504 0 -8.84457
2654696 1 167.285 128.993 197.604 0 -8.83271
2655054 1 160.964 132.224 197.417 0 -8.43063
927177 1 164.11 132.16 197.501 0 -8.52664
942159 1 108.054 151.506 197.263 0 -6.82588
2681244 1 256.732 63.4328 200.552 0 -6.25423
941338 1 170.457 125.822 200.691 0 -8.85143
941457 1 165.667 130.534 199.175 0 -8.61086
970137 1 167.287 128.982 200.699 0 -8.85334
2697778 1 173.644 122.627 203.712 0 -8.51655
2683619 1 173.603 125.795 203.864 0 -8.83444
984537 1 167.28 129.009 203.782 0 -8.81625
955981 1 170.405 128.97 203.864 0 -8.83123
2698257 1 167.233 132.205 203.805 0 -8.09728
984420 1 176.824 122.601 207.022 0 -7.90603
2698019 1 173.613 125.793 206.96 0 -8.78762
984538 1 167.336 128.976 206.917 0 -8.51621
2712538 1 170.484 129.007 206.937 0 -8.56623
2712299 1 178.202 124.264 208.773 0 -7.51199
2712539 1 175.064 127.27 208.726 0 -8.4425
1043580 1 178.236 167.389 216.431 0 -7.90721
2771459 1 174.994 167.385 219.686 0 -7.88358
1043581 1 178.213 167.459 219.645 0 -7.92401
2771581 1 181.656 170.737 219.827 0 -6.63637
2815022 1 186.604 173.843 228.041 0 -6.2636
1126755 1 224.751 81.2552 235.528 0 -6.55352
1083676 1 229.343 85.8469 234.517 0 -6.55295
1099269 1 206.816 116.256 234.231 0 -6.5435
1271006 1 261.258 91.0009 269.423 0 -6.6234
1270886 1 261.212 87.6729 272.803 0 -6.70719
1285643 1 253.357 94.8393 272.607 0 -6.8599
3043404 1 256.721 122.785 283.488 0 -6.25412
3054441 1 245.202 31.5246 285.433 0 -6.25457
738162 1 119.343 89.1067 151.116 0 -7.07069
726276 1 101.936 156.148 151.108 0 -7.34666
2454398 1 105.188 159.37 151.257 0 -7.57724
752561 1 115.984 89.2777 154.291 0 -7.93667
752802 1 118.047 93.5967 152.996 0 -7.27824
2454277 1 106.409 157.483 153.118 0 -7.14314
753404 1 119.295 114.725 159.638 0 -6.99922
768042 1 122.332 114.937 159.441 0 -7.18762
780890 1 144.773 74.5706 162.642 0 -6.25698
2526762 1 124.054 170.091 167.389 0 -7.05251
784483 1 121.561 173.335 165.961 0 -6.78752
813282 1 124.056 171.913 169.208 0 -7.06683
2553277 1 103.351 108.289 172.433 0 -6.85877
839798 1 106.408 108.518 172.159 0 -7.04545
856731 1 146.7 178.631 176.626 0 -6.25622
883231 1 86.0511 116.041 184.998 0 -6.26493
926459 1 175.23 117.926 192.661 0 -7.44287
2654577 1 168.862 124.367 192.712 0 -7.86553
912537 1 167.157 128.942 191.317 0 -8.36568
2640534 1 162.617 130.575 192.81 0 -8.50887
912654 1 159.704 133.964 192.616 0 -7.48888
940859 1 175.286 117.959 195.804 0 -8.12316
940979 1 175.142 121.145 195.914 0 -8.641
926818 1 173.472 125.806 194.525 0 -8.4248
941097 1 165.76 127.426 195.97 0 -8.82655
2640654 1 160.886 132.079 194.473 0 -8.25891
941455 1 162.582 130.575 195.934 0 -8.76483
942039 1 109.825 149.737 195.681 0 -6.54272
955259 1 172.085 121.116 199.065 0 -8.53253
2683259 1 175.234 121.023 199.115 0 -8.29404
2668978 1 172.057 124.241 199.163 0 -8.82353
2683857 1 168.879 127.399 199.139 0 -8.86133
2683855 1 162.489 133.898 198.971 0 -7.54425
969780 1 172.005 121.112 202.152 0 -8.53454
2683377 1 172.038 124.248 202.251 0 -8.82709
955738 1 168.873 127.404 202.247 0 -8.85737
970259 1 172.003 127.382 202.316 0 -8.86366
2683856 1 165.648 130.595 202.186 0 -8.44138
2712419 1 175.253 124.225 205.343 0 -8.6494
2712658 1 172.018 127.38 205.414 0 -8.81816
2726819 1 175.255 124.261 208.475 0 -8.51039
2712659 1 173.469 128.973 207.061 0 -8.40417
2698258 1 170.403 131.997 207.189 0 -7.76175
997510 1 210.463 92.4994 210.473 0 -6.25358
998939 1 175.399 127.569 211.385 0 -7.59256
1026190 1 208.539 87.3744 214.906 0 -6.25369
1027279 1 237.258 118.02 216.852 0 -6.2548
2785739 1 176.762 165.638 218.195 0 -7.48372
1029301 1 179.751 169.163 218.161 0 -7.71736
2771580 1 176.795 169.116 221.265 0 -7.21296
1068440 1 237.177 63.8485 223.292 0 -6.28614
2796557 1 234.089 66.9345 224.521 0 -7.3743
1057246 1 131.998 147.962 223.246 0 -6.82719
1057258 1 170.278 147.931 223.23 0 -6.271
1057367 1 135.257 151.216 223.364 0 -6.55185
1068558 1 234.089 65.0755 226.379 0 -7.37422
1082958 1 235.948 66.9338 226.379 0 -7.37333
1113669 1 208.399 118.026 236.002 0 -6.82193
2971037 1 234.045 108.442 262.754 0 -6.25533
1285524 1 255.11 90.6321 272.263 0 -7.22271
1300044 1 254.935 92.7922 276.07 0 -6.8672
