ITEM: TIMESTEP
87621
ITEM: NUMBER OF ATOMS
70
ITEM: BOX BOUNDS pp pp pp
0 360
0 360
0 360
ITEM: ATOMS id type x y z c_myKE c_myPE
2412297 1 168.594 187.94 140.064 0 -7.04457
2440848 1 141.903 181.46 146.317 0 -6.25517
768650 1 138.628 136.788 161.04 0 -7.09257
2515130 1 148.282 242.058 162.276 0 -6.25429
2524719 1 113.204 116.409 165.471 0 -6.25918
797449 1 138.7 132.786 166.207 0 -7.68854
2525449 1 141.035 132.522 165.104 0 -8.0037
2539847 1 136.58 135.7 168.781 0 -7.74209
2525448 1 138.891 134.713 167.967 0 -8.0019
811729 1 142.798 136.451 166.579 0 -7.94177
2539850 1 146.377 135.617 168.872 0 -7.5149
2541995 1 100.436 192.958 167.416 0 -6.25484
2554248 1 139.55 135.819 172.112 0 -8.27432
2555797 1 103.622 175.071 175.034 0 -6.25194
2582224 1 193.072 113.149 180.096 0 -6.55091
2596744 1 192.943 116.404 183.35 0 -6.82049
2614621 1 186.572 210.157 186.557 0 -6.25353
2656138 1 171.866 162.32 196.122 0 -6.25511
2672816 1 165.481 226.11 199.315 0 -6.25425
2683133 1 154.437 109.711 206.884 0 -7.51616
2711443 1 122.766 101.701 208.892 0 -6.25457
2725971 1 155.838 107.261 210.197 0 -7.00699
2725852 1 152.484 109.593 208.573 0 -7.08228
2739284 1 130.483 76.1621 213.303 0 -6.90852
2739404 1 128.976 77.95 215.087 0 -7.12064
2797399 1 240.831 88.931 226.064 0 -7.07152
2824736 1 167.444 52.5765 232.418 0 -6.25499
1212894 1 159.221 74.7893 250.234 0 -8.1827
2911731 1 154.658 69.7438 254.876 0 -7.62501
2926374 1 157.695 72.9484 254.912 0 -8.24948
2913532 1 154.667 114.478 253.545 0 -6.25357
1313571 1 149.497 72.9901 282.258 0 -6.25295
684298 1 170.343 186.444 138.302 0 -6.75358
698698 1 170.376 186.077 141.609 0 -6.91861
797330 1 144.742 130.842 162.99 0 -6.97032
811850 1 144.914 130.723 166.178 0 -6.92362
2511168 1 140.367 135.303 165.471 0 -8.99212
2525687 1 137.181 138.442 165.874 0 -8.00875
797689 1 140.475 141.5 165.851 0 -7.58355
2527972 1 156.321 202.176 165.819 0 -6.35224
812088 1 141.626 137.184 170.717 0 -8.05417
826488 1 138.521 140.506 170.408 0 -7.61859
2528577 1 169.022 218.138 169.006 0 -6.25263
2554368 1 137.305 138.197 171.571 0 -7.27954
855892 1 153.065 156.286 176.621 0 -6.25678
867071 1 213.664 68.2258 179.828 0 -6.8204
867190 1 210.41 71.4832 179.703 0 -6.54679
969075 1 226.44 100.117 202.152 0 -6.25565
982724 1 125.607 84.1136 207.295 0 -6.28776
1012614 1 156.303 111.582 208.712 0 -6.94072
1039880 1 242.57 68.5008 218.405 0 -7.06711
1039999 1 239.341 71.0293 216.991 0 -6.78857
1011525 1 127.464 79.7452 216.862 0 -6.91237
1029295 1 162.648 170.297 216.851 0 -6.25604
1054130 1 146.702 66.9556 221.291 0 -6.25744
1054280 1 240.752 68.5082 220.231 0 -7.07613
1069401 1 245.726 87.5484 224.675 0 -7.24226
1069520 1 242.416 90.3412 224.334 0 -7.39805
1083680 1 242.406 87.1915 227.484 0 -7.40999
1100454 1 160.695 149.906 230.869 0 -6.2561
1129617 1 165.834 157.529 239.186 0 -6.25396
2911972 1 156.073 74.6043 250.131 0 -8.06752
2912215 1 157.666 76.4781 248.699 0 -7.3422
1198494 1 157.678 70.1505 251.885 0 -8.18644
2911852 1 154.423 73.0963 251.764 0 -7.84267
2897573 1 157.642 73.1468 251.8 0 -8.56306
1213013 1 159.31 74.5999 253.37 0 -8.07372
2926614 1 159.47 77.5758 253.272 0 -7.41224
1212654 1 159.466 68.2039 256.251 0 -7.34058
1198492 1 155.997 71.5119 256.501 0 -7.64668
