ITEM: TIMESTEP
88000
ITEM: NUMBER OF ATOMS
76
ITEM: BOX BOUNDS pp pp pp
0 360
0 360
0 360
ITEM: ATOMS id type x y z
541394 1 219.75 213.75 111.75
569449 1 144.75 195.75 117.75
612689 1 264.75 195.75 126.75
656834 1 219.75 219.75 135.75
700969 1 144.75 243.75 144.75
715370 1 147.75 243.75 147.75
728712 1 213.75 216.75 150.75
728831 1 210.75 219.75 150.75
728832 1 213.75 219.75 150.75
728833 1 216.75 219.75 150.75
728951 1 210.75 222.75 150.75
729072 1 213.75 225.75 150.75
743352 1 213.75 222.75 153.75
787039 1 234.75 234.75 162.75
800460 1 177.75 210.75 165.75
801317 1 228.75 231.75 165.75
801436 1 225.75 234.75 165.75
801437 1 228.75 234.75 165.75
813394 1 99.75 174.75 168.75
813636 1 105.75 180.75 168.75
814620 1 177.75 204.75 168.75
815837 1 228.75 234.75 168.75
827914 1 99.75 177.75 171.75
828198 1 231.75 183.75 171.75
828330 1 267.75 186.75 171.75
841365 1 132.75 153.75 174.75
842597 1 228.75 183.75 174.75
856742 1 183.75 177.75 177.75
871141 1 180.75 177.75 180.75
888523 1 126.75 252.75 183.75
898886 1 255.75 150.75 186.75
899007 1 258.75 153.75 186.75
899123 1 246.75 156.75 186.75
927688 1 261.75 150.75 192.75
927808 1 261.75 153.75 192.75
956856 1 285.75 159.75 198.75
956857 1 288.75 159.75 198.75
960666 1 195.75 255.75 198.75
971257 1 288.75 159.75 201.75
986473 1 216.75 180.75 204.75
2196780 1 179.25 200.25 98.25
2227260 1 179.25 242.25 104.25
2310044 1 131.25 152.25 122.25
2384714 1 221.25 218.25 137.25
2396691 1 152.25 158.25 140.25
2396812 1 155.25 161.25 140.25
2398493 1 158.25 203.25 140.25
2398612 1 155.25 206.25 140.25
2398613 1 158.25 206.25 140.25
2428031 1 212.25 221.25 146.25
2428046 1 257.25 221.25 146.25
2428150 1 209.25 224.25 146.25
2428848 1 143.25 242.25 146.25
2442311 1 212.25 218.25 149.25
2442430 1 209.25 221.25 149.25
2443128 1 143.25 239.25 149.25
2456831 1 212.25 221.25 152.25
2456832 1 215.25 221.25 152.25
2498075 1 104.25 173.25 161.25
2498197 1 110.25 176.25 161.25
2512595 1 104.25 176.25 164.25
2512598 1 113.25 176.25 164.25
2513939 1 176.25 209.25 164.25
2513940 1 179.25 209.25 164.25
2515036 1 227.25 236.25 164.25
2529437 1 230.25 236.25 167.25
2530500 1 179.25 263.25 167.25
2573444 1 131.25 257.25 176.25
2602122 1 125.25 254.25 182.25
2641288 1 263.25 152.25 191.25
2671174 1 281.25 179.25 197.25
2671295 1 284.25 182.25 197.25
2685575 1 284.25 179.25 200.25
2685694 1 281.25 182.25 200.25
2700808 1 263.25 200.25 203.25
2703886 1 137.25 278.25 203.25
