ITEM: TIMESTEP
90000
ITEM: NUMBER OF ATOMS
59
ITEM: BOX BOUNDS pp pp pp
0 360
0 360
0 360
ITEM: ATOMS id type x y z
572088 1 141.75 261.75 117.75
614922 1 123.75 252.75 126.75
625738 1 171.75 162.75 129.75
643368 1 141.75 243.75 132.75
644204 1 129.75 264.75 132.75
644327 1 138.75 267.75 132.75
658602 1 123.75 264.75 135.75
668815 1 162.75 159.75 138.75
673361 1 120.75 273.75 138.75
682254 1 159.75 135.75 141.75
686443 1 126.75 240.75 141.75
687642 1 123.75 270.75 141.75
697131 1 150.75 147.75 144.75
700730 1 147.75 237.75 144.75
701089 1 144.75 246.75 144.75
701807 1 138.75 264.75 144.75
729772 1 153.75 243.75 150.75
730368 1 141.75 258.75 150.75
769855 1 162.75 165.75 159.75
787013 1 156.75 234.75 162.75
787605 1 132.75 249.75 162.75
787730 1 147.75 252.75 162.75
799250 1 147.75 180.75 165.75
800690 1 147.75 216.75 165.75
803564 1 129.75 288.75 165.75
813530 1 147.75 177.75 168.75
814861 1 180.75 210.75 168.75
844609 1 144.75 234.75 174.75
845087 1 138.75 246.75 174.75
859253 1 156.75 240.75 177.75
859489 1 144.75 246.75 177.75
959452 1 153.75 225.75 198.75
2314130 1 149.25 254.25 122.25
2328047 1 140.25 242.25 125.25
2339214 1 161.25 161.25 128.25
2342447 1 140.25 242.25 128.25
2371492 1 155.25 248.25 134.25
2371732 1 155.25 254.25 134.25
2385892 1 155.25 248.25 137.25
2386963 1 128.25 275.25 137.25
2398261 1 182.25 197.25 140.25
2400048 1 143.25 242.25 140.25
2414692 1 155.25 248.25 143.25
2428849 1 146.25 242.25 146.25
2429445 1 134.25 257.25 146.25
2441342 1 185.25 194.25 149.25
2444327 1 140.25 269.25 149.25
2455133 1 158.25 179.25 152.25
2470254 1 161.25 197.25 155.25
2484049 1 146.25 182.25 158.25
2485021 1 182.25 206.25 158.25
2487410 1 149.25 266.25 158.25
2513089 1 146.25 188.25 164.25
2513339 1 176.25 194.25 164.25
2513701 1 182.25 203.25 164.25
2531565 1 134.25 290.25 167.25
2572727 1 140.25 239.25 176.25
2601408 1 143.25 236.25 182.25
2602130 1 149.25 254.25 182.25
