ITEM: TIMESTEP
87000
ITEM: NUMBER OF ATOMS
72
ITEM: BOX BOUNDS pp pp pp
0 360
0 360
0 360
ITEM: ATOMS id type x y z c_myKE c_myPE
2235646 1 136.113 87.8156 101.91 0.0666381 -6.6602
2291322 1 121.045 34.7966 114.358 0.139359 -6.1051
2336561 1 119.928 91.0463 124.25 0.0371025 -6.86961
2336562 1 123.476 90.9256 124.087 0.140706 -6.73891
2377720 1 114.591 34.4905 133.701 0.188149 -6.33707
2363208 1 139.782 33.3505 132.473 0.0682867 -6.93026
651767 1 138.987 88.8145 132.237 0.0846247 -6.52338
2379768 1 141.618 89.2468 135.76 0.339685 -6.35364
2394999 1 113.455 110.947 136.824 0.0656557 -6.92651
2434858 1 173.846 21.8135 146.256 0.124875 -6.33546
2511057 1 170.707 135.312 163.88 0.0249457 -7.29944
2512728 1 139.755 178.299 164.116 0.544723 -6.44063
838991 1 208.901 84.4348 174.039 0.0897026 -7.26736
2552708 1 208.871 87.5395 173.608 0.0674168 -7.31431
840889 1 148.644 135.362 175.061 0.0246012 -7.87798
869811 1 146.679 135.326 177.134 0.0854369 -8.05944
2610661 1 181.479 103.635 184.731 0.207143 -6.74112
927769 1 145.031 156.134 184.489 0.260221 -7.03415
2624095 1 165.289 78.0639 189.603 0.310968 -6.612
2625300 1 178.405 108.241 189.854 0.0106817 -6.84608
939426 1 197.221 75.0174 194.267 0.50809 -5.9309
2670398 1 106.546 161.57 194.561 0.0933794 -6.84234
2670278 1 107.835 158.038 197.195 0.00917461 -6.48231
2656496 1 167.367 172.12 196.253 0.187609 -6.17889
2746893 1 283.303 277.467 213.278 0.0726809 -6.39781
2774716 1 231.344 251.529 219.663 0.0844042 -6.89105
2774835 1 227.965 254.361 219.426 0.313719 -6.81065
2789715 1 226.216 269.432 223.155 0.159284 -5.82519
1088455 1 164.953 213.68 232.864 0.15219 -7.85064
2816218 1 168.044 213.46 232.415 0.0624219 -7.45351
1117016 1 165.597 206.992 239.046 0.176749 -7.07759
2845136 1 166.878 209.1 237.608 0.149514 -7.50662
2903591 1 215.023 232.363 248.666 0.139653 -7.22477
2903942 1 181.59 240.789 248.649 0.21695 -5.70137
2917992 1 218.236 232.37 251.864 0.239004 -6.60754
2918111 1 215.286 236.002 251.713 0.0860652 -7.24777
2920147 1 200.764 292.107 253.352 0.0941196 -7.0247
2989495 1 163.959 221.86 267.079 0.0815943 -6.18166
3062590 1 210.202 250.322 285.413 0.397777 -6.00988
608562 1 121.723 89.5708 122.74 0.302723 -7.05119
635321 1 117.913 34.7481 130.708 0.376719 -6.13207
725200 1 115.246 126.045 147.887 0.541993 -6.34882
768657 1 169.216 134.216 159.554 0.126211 -6.93438
783183 1 188.15 137.248 160.638 0.402203 -6.51638
780431 1 212.037 64.2564 162.676 0.188451 -6.00116
783058 1 172.151 133.682 162.413 0.159595 -7.79554
783177 1 168.921 137.42 162.32 0.207998 -6.69023
2538891 1 151.003 106.557 169.171 0.209471 -6.99089
838630 1 213.358 82.9755 172.303 0.131213 -6.69289
810308 1 210.56 85.8008 172.269 0.0977277 -6.90627
867670 1 207.481 86.0269 175.618 0.321002 -7.61513
841011 1 146.562 140.738 175.343 0.101381 -7.63695
855293 1 146.744 137.073 179.188 0.0510094 -7.7866
899210 1 147.906 152.655 183.076 0.0400317 -6.39717
868499 1 175.564 103.615 184.656 0.25568 -6.24365
2596379 1 179.831 105.243 186.133 0.0686719 -7.0198
911820 1 176.498 109.736 191.36 0.148735 -7.65229
928118 1 106.819 160.753 192.224 0.0644106 -7.0045
970154 1 221.229 128.864 201.994 0.330988 -7.09965
1069615 1 160.784 95.8915 224.391 0.105973 -6.61622
1102753 1 217.92 210.394 230.986 0.10659 -6.0577
1102976 1 162.37 214.768 231.258 0.0275157 -6.44545
1117496 1 166.489 215.196 231.076 0.0390718 -7.58879
1102856 1 166.672 212.308 234.222 0.162502 -7.41246
2845016 1 164.085 208.363 237.119 0.0928686 -8.0811
1102738 1 166.525 212.055 237.345 0.170062 -7.87219
2816338 1 170.514 211.325 236.84 0.0969213 -7.37583
1147156 1 229.655 240.106 242.448 0.138185 -6.99723
2889301 1 179.963 239.432 246.993 0.0936951 -7.04988
2920028 1 202.691 290.413 253.208 0.310501 -6.54396
1230540 1 178.768 160.809 261.864 0.135233 -6.42847
1278902 1 183.161 299.86 270.989 0.0695156 -5.975
