ITEM: TIMESTEP
90000
ITEM: NUMBER OF ATOMS
117
ITEM: BOX BOUNDS pp pp pp
0 360
0 360
0 360
ITEM: ATOMS id type x y z
625497 1 168.75 156.75 129.75
625503 1 186.75 156.75 129.75
625620 1 177.75 159.75 129.75
639420 1 177.75 144.75 132.75
639659 1 174.75 150.75 132.75
640019 1 174.75 159.75 132.75
654901 1 180.75 171.75 135.75
668703 1 186.75 156.75 138.75
669062 1 183.75 165.75 138.75
669066 1 195.75 165.75 138.75
669182 1 183.75 168.75 138.75
669302 1 183.75 171.75 138.75
669418 1 171.75 174.75 138.75
669419 1 174.75 174.75 138.75
669543 1 186.75 177.75 138.75
683220 1 177.75 159.75 141.75
683221 1 180.75 159.75 141.75
683456 1 165.75 165.75 141.75
683578 1 171.75 168.75 141.75
683581 1 180.75 168.75 141.75
683707 1 198.75 171.75 141.75
684062 1 183.75 180.75 141.75
684419 1 174.75 189.75 141.75
684422 1 183.75 189.75 141.75
697614 1 159.75 159.75 144.75
697615 1 162.75 159.75 144.75
697620 1 177.75 159.75 144.75
697738 1 171.75 162.75 144.75
697861 1 180.75 165.75 144.75
698102 1 183.75 171.75 144.75
698104 1 189.75 171.75 144.75
711059 1 174.75 135.75 147.75
711537 1 168.75 147.75 147.75
712380 1 177.75 168.75 147.75
712382 1 183.75 168.75 147.75
712504 1 189.75 171.75 147.75
712858 1 171.75 180.75 147.75
713101 1 180.75 186.75 147.75
726300 1 177.75 156.75 150.75
726901 1 180.75 171.75 150.75
726902 1 183.75 171.75 150.75
727021 1 180.75 174.75 150.75
727022 1 183.75 174.75 150.75
727265 1 192.75 180.75 150.75
740941 1 180.75 162.75 153.75
740942 1 183.75 162.75 153.75
741539 1 174.75 177.75 153.75
741665 1 192.75 180.75 153.75
741789 1 204.75 183.75 153.75
755700 1 177.75 171.75 156.75
770833 1 216.75 189.75 159.75
783656 1 165.75 150.75 162.75
784136 1 165.75 162.75 162.75
800362 1 243.75 207.75 165.75
814154 1 219.75 192.75 168.75
829137 1 168.75 207.75 171.75
843671 1 210.75 210.75 174.75
843685 1 252.75 210.75 174.75
885555 1 222.75 177.75 183.75
944360 1 237.75 207.75 195.75
945201 1 240.75 228.75 195.75
2324935 1 164.25 164.25 125.25
2353137 1 170.25 149.25 131.25
2382183 1 188.25 155.25 137.25
2382905 1 194.25 173.25 137.25
2395616 1 167.25 131.25 140.25
2396580 1 179.25 155.25 140.25
2396694 1 161.25 158.25 140.25
2397179 1 176.25 170.25 140.25
2397301 1 182.25 173.25 140.25
2410735 1 164.25 149.25 143.25
2411096 1 167.25 158.25 143.25
2411337 1 170.25 164.25 143.25
2411462 1 185.25 167.25 143.25
2411582 1 185.25 170.25 143.25
2411701 1 182.25 173.25 143.25
2411702 1 185.25 173.25 143.25
2425261 1 182.25 152.25 146.25
2425499 1 176.25 158.25 146.25
2425500 1 179.25 158.25 146.25
2425620 1 179.25 161.25 146.25
2425621 1 182.25 161.25 146.25
2425859 1 176.25 167.25 146.25
2425862 1 185.25 167.25 146.25
2425980 1 179.25 170.25 146.25
2425981 1 182.25 170.25 146.25
2425982 1 185.25 170.25 146.25
2426100 1 179.25 173.25 146.25
2426101 1 182.25 173.25 146.25
2426102 1 185.25 173.25 146.25
2440259 1 176.25 167.25 149.25
2440260 1 179.25 167.25 149.25
2440261 1 182.25 167.25 149.25
2440262 1 185.25 167.25 149.25
2440625 1 194.25 176.25 149.25
2440739 1 176.25 179.25 149.25
2454419 1 176.25 161.25 152.25
2454898 1 173.25 173.25 152.25
2455025 1 194.25 176.25 152.25
2455141 1 182.25 179.25 152.25
2468695 1 164.25 158.25 155.25
2468944 1 191.25 164.25 155.25
2469298 1 173.25 173.25 155.25
2469784 1 191.25 185.25 155.25
2483825 1 194.25 176.25 158.25
2497615 1 164.25 161.25 161.25
2498580 1 179.25 185.25 161.25
2542033 1 218.25 191.25 170.25
2556907 1 200.25 203.25 173.25
2557027 1 200.25 206.25 173.25
2571080 1 239.25 197.25 176.25
2585102 1 185.25 188.25 179.25
2586085 1 254.25 212.25 179.25
2587025 1 194.25 236.25 179.25
2600241 1 242.25 206.25 182.25
2600699 1 176.25 218.25 182.25
2644989 1 206.25 245.25 191.25
