ITEM: TIMESTEP
89000
ITEM: NUMBER OF ATOMS
43
ITEM: BOX BOUNDS pp pp pp
0 360
0 360
0 360
ITEM: ATOMS id type x y z
496488 1 141.75 171.75 102.75
582195 1 222.75 153.75 120.75
599217 1 168.75 219.75 123.75
599218 1 171.75 219.75 123.75
613737 1 168.75 222.75 126.75
686821 1 180.75 249.75 141.75
711672 1 213.75 150.75 147.75
772251 1 150.75 225.75 159.75
784742 1 183.75 177.75 162.75
784745 1 192.75 177.75 162.75
784862 1 183.75 180.75 162.75
799380 1 177.75 183.75 165.75
799381 1 180.75 183.75 165.75
799382 1 183.75 183.75 165.75
813214 1 279.75 168.75 168.75
813780 1 177.75 183.75 168.75
858325 1 252.75 216.75 177.75
899450 1 147.75 165.75 186.75
914952 1 213.75 192.75 189.75
942670 1 207.75 165.75 195.75
1042610 1 147.75 144.75 216.75
1161186 1 195.75 228.75 240.75
1202588 1 201.75 183.75 249.75
2154420 1 179.25 221.25 89.25
2312817 1 170.25 221.25 122.25
2411341 1 182.25 164.25 143.25
2425030 1 209.25 146.25 146.25
2439431 1 212.25 146.25 149.25
2441558 1 113.25 200.25 149.25
2469171 1 152.25 170.25 155.25
2498340 1 179.25 179.25 161.25
2498342 1 185.25 179.25 161.25
2498463 1 188.25 182.25 161.25
2512741 1 182.25 179.25 164.25
2512860 1 179.25 182.25 164.25
2512861 1 182.25 182.25 164.25
2512862 1 185.25 182.25 164.25
2512982 1 185.25 185.25 164.25
2527260 1 179.25 182.25 167.25
2527381 1 182.25 185.25 167.25
2627585 1 194.25 170.25 188.25
2628767 1 140.25 200.25 188.25
2658665 1 194.25 227.25 194.25
