ITEM: TIMESTEP
90000
ITEM: NUMBER OF ATOMS
80
ITEM: BOX BOUNDS pp pp pp
0 360
0 360
0 360
ITEM: ATOMS id type x y z
654900 1 177.75 171.75 135.75
684174 1 159.75 183.75 141.75
741548 1 201.75 177.75 153.75
741899 1 174.75 186.75 153.75
769492 1 153.75 156.75 159.75
770233 1 216.75 174.75 159.75
785118 1 231.75 186.75 162.75
799283 1 246.75 180.75 165.75
799758 1 231.75 192.75 165.75
813918 1 231.75 186.75 168.75
828202 1 243.75 183.75 171.75
840432 1 213.75 129.75 174.75
840435 1 222.75 129.75 174.75
842843 1 246.75 189.75 174.75
854708 1 201.75 126.75 177.75
868992 1 213.75 123.75 180.75
883509 1 204.75 126.75 183.75
883868 1 201.75 135.75 183.75
885174 1 159.75 168.75 183.75
926831 1 210.75 129.75 192.75
927663 1 186.75 150.75 192.75
927771 1 150.75 153.75 192.75
956572 1 153.75 153.75 198.75
970254 1 159.75 135.75 201.75
970617 1 168.75 144.75 201.75
970737 1 168.75 147.75 201.75
970855 1 162.75 150.75 201.75
971209 1 144.75 159.75 201.75
972058 1 171.75 180.75 201.75
999057 1 168.75 135.75 207.75
999288 1 141.75 141.75 207.75
999293 1 156.75 141.75 207.75
999894 1 159.75 156.75 207.75
1000616 1 165.75 174.75 207.75
1013572 1 153.75 138.75 210.75
1013580 1 177.75 138.75 210.75
1028213 1 156.75 144.75 213.75
1028700 1 177.75 156.75 213.75
1042496 1 165.75 141.75 216.75
1042854 1 159.75 150.75 216.75
1057007 1 138.75 144.75 219.75
2383495 1 164.25 188.25 137.25
2411943 1 188.25 179.25 143.25
2412056 1 167.25 182.25 143.25
2425009 1 146.25 146.25 146.25
2426696 1 167.25 188.25 146.25
2453810 1 149.25 146.25 152.25
2482610 1 149.25 146.25 158.25
2483696 1 167.25 173.25 158.25
2497012 1 155.25 146.25 161.25
2511071 1 212.25 137.25 164.25
2555837 1 230.25 176.25 173.25
2568311 1 212.25 128.25 176.25
2568556 1 227.25 134.25 176.25
2583416 1 167.25 146.25 179.25
2596990 1 209.25 125.25 182.25
2596991 1 212.25 125.25 182.25
2597472 1 215.25 137.25 182.25
2612449 1 146.25 152.25 185.25
2640649 1 146.25 137.25 191.25
2641371 1 152.25 155.25 191.25
2670052 1 155.25 152.25 197.25
2683853 1 158.25 137.25 200.25
2684097 1 170.25 143.25 200.25
2684101 1 182.25 143.25 200.25
2684577 1 170.25 155.25 200.25
2697781 1 182.25 125.25 203.25
2698620 1 179.25 146.25 203.25
2698973 1 158.25 155.25 203.25
2698975 1 164.25 155.25 203.25
2711699 1 176.25 113.25 206.25
2712651 1 152.25 137.25 206.25
2712899 1 176.25 143.25 206.25
2713131 1 152.25 149.25 206.25
2727175 1 164.25 140.25 209.25
2756095 1 164.25 143.25 215.25
2756578 1 173.25 155.25 215.25
2756802 1 125.25 161.25 215.25
2756923 1 128.25 164.25 215.25
2785137 1 170.25 149.25 221.25
