ITEM: TIMESTEP
90662
ITEM: NUMBER OF ATOMS
72
ITEM: BOX BOUNDS pp pp pp
0 360
0 360
0 360
ITEM: ATOMS id type x y z c_myKE c_myPE
596095 1 164.217 138.723 119.58 0 -6.25603
2324126 1 261.468 142.139 121.184 0 -7.06159
2338526 1 261.47 140.318 123.009 0 -7.0845
2339583 1 189.704 168.701 124.015 0 -6.82142
2339702 1 186.448 171.961 123.901 0 -6.54098
2396606 1 257.999 154.541 136.939 0 -8.37636
2396846 1 261.168 157.736 136.975 0 -8.52394
2382328 1 264.436 160.901 137.007 0 -8.27757
640169 1 267.341 160.915 136.782 0 -7.95796
2382764 1 127.183 170.626 135.533 0 -6.25468
683124 1 254.967 157.728 140.126 0 -8.82391
2411125 1 258.056 157.753 140.132 0 -8.8479
2411365 1 258.129 160.897 140.158 0 -8.82545
2396847 1 261.219 160.918 140.161 0 -8.80459
2425767 1 264.393 164.104 140.178 0 -8.72894
669090 1 267.574 164.1 140.134 0 -7.83687
2426007 1 264.459 167.301 140.155 0 -7.97227
684420 1 178.204 192.976 138.734 0 -6.25208
2425524 1 251.782 157.813 143.285 0 -8.33282
697403 1 254.87 157.767 143.262 0 -8.79577
2425764 1 254.934 160.919 143.333 0 -8.37742
697766 1 257.952 160.94 143.317 0 -8.42856
2440286 1 261.26 164.088 143.372 0 -8.07498
726081 1 248.313 151.356 146.495 0 -6.87913
2454293 1 155.879 156.071 149.728 0 -6.59189
2455053 1 283.479 176.988 151.474 0 -6.25922
2481814 1 286.728 122.714 155.914 0 -6.24889
2482140 1 178.228 138.752 154.641 0 -6.25225
2484319 1 240.781 187.818 157.895 0 -7.07895
2625427 1 200.705 113.055 186.687 0 -6.56163
2639466 1 199.184 101.863 191.036 0 -7.19668
2639587 1 202.578 104.802 191.01 0 -7.87969
2643053 1 155.903 199.336 191.024 0 -6.82174
2642341 1 181.413 178.265 192.959 0 -6.25512
2657454 1 159.158 199.462 194.28 0 -6.54856
640376 1 168.905 168.96 130.865 0 -6.52299
640498 1 172.151 172.229 130.782 0 -6.825
668607 1 259.655 156.108 135.387 0 -8.29664
2411008 1 262.597 156.133 135.24 0 -7.55949
2367928 1 269.172 159.226 135.234 0 -6.76321
683004 1 256.444 152.97 138.517 0 -8.03309
668603 1 253.409 156.158 138.508 0 -8.54761
2411124 1 256.508 156.135 138.546 0 -8.78308
2396726 1 259.594 156.17 138.532 0 -8.79413
683245 1 259.688 159.317 138.581 0 -8.83625
668727 1 262.796 159.318 138.613 0 -8.57481
668969 1 262.849 162.461 138.603 0 -8.82991
2382568 1 265.913 162.543 138.55 0 -8.49663
695850 1 275.517 109.649 141.563 0 -6.25384
697283 1 253.178 153.065 141.693 0 -8.01931
2439922 1 250.162 156.256 141.566 0 -8.34674
682884 1 253.312 156.186 141.678 0 -8.76103
2411245 1 256.498 159.332 141.72 0 -8.80396
683367 1 259.613 162.549 141.711 0 -8.64029
697767 1 262.757 162.525 141.727 0 -8.79795
697888 1 262.833 165.685 141.781 0 -8.37232
2396481 1 249.757 152.999 144.865 0 -7.41857
2483113 1 223.207 159.479 143.519 0 -6.2643
2425644 1 253.357 159.327 144.929 0 -7.99535
711774 1 156.258 152.955 146.446 0 -6.69921
726295 1 159.385 153.192 149.859 0 -6.87043
770719 1 239.373 186.085 159.479 0 -7.4131
770840 1 242.514 189.222 159.483 0 -7.41932
785120 1 242.176 186.422 162.791 0 -7.26354
797813 1 154.297 141.576 165.835 0 -6.25547
897666 1 198.932 114.838 185.091 0 -6.85026
899830 1 210.473 173.478 188.168 0 -6.25567
925867 1 200.795 100.123 192.728 0 -7.67666
925987 1 200.878 103.312 192.76 0 -7.74522
925988 1 203.978 103.386 192.813 0 -7.61426
926108 1 204.166 106.322 192.691 0 -7.29745
940387 1 200.863 103.29 195.847 0 -7.50358
