ITEM: TIMESTEP
92198
ITEM: NUMBER OF ATOMS
67
ITEM: BOX BOUNDS pp pp pp
0 360
0 360
0 360
ITEM: ATOMS id type x y z
943372 1 153.75 183.75 195.75
957652 1 153.75 180.75 198.75
957772 1 153.75 183.75 198.75
971813 1 156.75 174.75 201.75
971932 1 153.75 177.75 201.75
972051 1 150.75 180.75 201.75
986093 1 156.75 171.75 204.75
986212 1 153.75 174.75 204.75
986331 1 150.75 177.75 204.75
1000728 1 141.75 177.75 207.75
1000847 1 138.75 180.75 207.75
1001828 1 201.75 204.75 207.75
1015127 1 138.75 177.75 210.75
1016220 1 177.75 204.75 210.75
1074034 1 99.75 210.75 222.75
1174613 1 156.75 204.75 243.75
1188292 1 153.75 186.75 246.75
1188413 1 156.75 189.75 246.75
1202572 1 153.75 183.75 249.75
1202693 1 156.75 186.75 249.75
1202813 1 156.75 189.75 249.75
1390865 1 192.75 210.75 288.75
1493461 1 180.75 255.75 309.75
1549493 1 156.75 216.75 321.75
1549612 1 153.75 219.75 321.75
1564013 1 156.75 219.75 324.75
1608061 1 180.75 240.75 333.75
2366684 1 131.25 128.25 134.25
2467013 1 158.25 116.25 155.25
2557243 1 128.25 212.25 173.25
2615907 1 80.25 239.25 185.25
2656724 1 131.25 179.25 194.25
2671252 1 155.25 182.25 197.25
2685293 1 158.25 173.25 200.25
2685412 1 155.25 176.25 200.25
2685531 1 152.25 179.25 200.25
2685651 1 152.25 182.25 200.25
2699573 1 158.25 170.25 203.25
2699692 1 155.25 173.25 203.25
2699693 1 158.25 173.25 203.25
2699694 1 161.25 173.25 203.25
2699811 1 152.25 176.25 203.25
2699812 1 155.25 176.25 203.25
2699931 1 152.25 179.25 203.25
2714092 1 155.25 173.25 206.25
2785981 1 182.25 170.25 221.25
2817273 1 98.25 233.25 227.25
2902351 1 92.25 200.25 245.25
2916174 1 161.25 185.25 248.25
2930451 1 152.25 182.25 251.25
3061865 1 194.25 227.25 278.25
3076266 1 197.25 227.25 281.25
3076385 1 194.25 230.25 281.25
3090172 1 155.25 215.25 284.25
3163501 1 182.25 248.25 299.25
3163620 1 179.25 251.25 299.25
3262959 1 116.25 215.25 320.25
3263092 1 155.25 218.25 320.25
3263211 1 152.25 221.25 320.25
3263332 1 155.25 224.25 320.25
3277611 1 152.25 221.25 323.25
3378059 1 176.25 212.25 344.25
3392337 1 170.25 209.25 347.25
3392458 1 173.25 212.25 347.25
3392579 1 176.25 215.25 347.25
3393075 1 224.25 227.25 347.25
3436731 1 152.25 239.25 356.25
