ITEM: TIMESTEP
87977
ITEM: NUMBER OF ATOMS
99
ITEM: BOX BOUNDS pp pp pp
0 360
0 360
0 360
ITEM: ATOMS id type x y z
611933 1 156.75 177.75 126.75
640017 1 168.75 159.75 132.75
640736 1 165.75 177.75 132.75
653815 1 162.75 144.75 135.75
654534 1 159.75 162.75 135.75
699321 1 240.75 201.75 144.75
699438 1 231.75 204.75 144.75
712249 1 144.75 165.75 147.75
712252 1 153.75 165.75 147.75
713717 1 228.75 201.75 147.75
726291 1 150.75 156.75 150.75
727129 1 144.75 177.75 150.75
727372 1 153.75 183.75 150.75
727373 1 156.75 183.75 150.75
727385 1 192.75 183.75 150.75
755332 1 153.75 162.75 156.75
755932 1 153.75 177.75 156.75
756052 1 153.75 180.75 156.75
756054 1 159.75 180.75 156.75
756175 1 162.75 183.75 156.75
756292 1 153.75 186.75 156.75
756293 1 156.75 186.75 156.75
770450 1 147.75 180.75 159.75
770451 1 150.75 180.75 159.75
770452 1 153.75 180.75 159.75
770961 1 240.75 192.75 159.75
771081 1 240.75 195.75 159.75
784735 1 162.75 177.75 162.75
798405 1 132.75 159.75 165.75
799129 1 144.75 177.75 165.75
799253 1 156.75 180.75 165.75
799373 1 156.75 183.75 165.75
799759 1 234.75 192.75 165.75
813403 1 126.75 174.75 168.75
813412 1 153.75 174.75 168.75
814279 1 234.75 195.75 168.75
815115 1 222.75 216.75 168.75
828321 1 240.75 186.75 171.75
843077 1 228.75 195.75 174.75
872237 1 228.75 204.75 180.75
913962 1 123.75 168.75 189.75
2354090 1 149.25 173.25 131.25
2396093 1 158.25 143.25 140.25
2397052 1 155.25 167.25 140.25
2397055 1 164.25 167.25 140.25
2440609 1 146.25 176.25 149.25
2440729 1 146.25 179.25 149.25
2441212 1 155.25 191.25 149.25
2454652 1 155.25 167.25 152.25
2454774 1 161.25 170.25 152.25
2454892 1 155.25 173.25 152.25
2456005 1 254.25 200.25 152.25
2456120 1 239.25 203.25 152.25
2456122 1 245.25 203.25 152.25
2456123 1 248.25 203.25 152.25
2456480 1 239.25 212.25 152.25
2469410 1 149.25 176.25 155.25
2469530 1 149.25 179.25 155.25
2483807 1 140.25 176.25 158.25
2483930 1 149.25 179.25 158.25
2484050 1 149.25 182.25 158.25
2484171 1 152.25 185.25 158.25
2484172 1 155.25 185.25 158.25
2484294 1 161.25 188.25 158.25
2484556 1 227.25 194.25 158.25
2484560 1 239.25 194.25 158.25
2498090 1 149.25 173.25 161.25
2498208 1 143.25 176.25 161.25
2498330 1 149.25 179.25 161.25
2498447 1 140.25 182.25 161.25
2498450 1 149.25 182.25 161.25
2512608 1 143.25 176.25 164.25
2512609 1 146.25 176.25 164.25
2512732 1 155.25 179.25 164.25
2513089 1 146.25 188.25 164.25
2513478 1 233.25 197.25 164.25
2513598 1 233.25 200.25 164.25
2513840 1 239.25 206.25 164.25
2527030 1 209.25 176.25 167.25
2527130 1 149.25 179.25 167.25
2527131 1 152.25 179.25 167.25
2527760 1 239.25 194.25 167.25
2527850 1 149.25 197.25 167.25
2527966 1 137.25 200.25 167.25
2541408 1 143.25 176.25 170.25
2541531 1 152.25 179.25 170.25
2541888 1 143.25 188.25 170.25
2542039 1 236.25 191.25 170.25
2542760 1 239.25 209.25 170.25
2556049 1 146.25 182.25 173.25
2556436 1 227.25 191.25 173.25
2556677 1 230.25 197.25 173.25
2570087 1 140.25 173.25 176.25
2570718 1 233.25 188.25 176.25
2571201 1 242.25 200.25 176.25
2584725 1 134.25 179.25 179.25
2585240 1 239.25 191.25 179.25
2599161 1 242.25 179.25 182.25
2743719 1 116.25 194.25 212.25
