ITEM: TIMESTEP
92273
ITEM: NUMBER OF ATOMS
98
ITEM: BOX BOUNDS pp pp pp
0 360
0 360
0 360
ITEM: ATOMS id type x y z c_myKE c_myPE
2283775 1 164.288 219.701 111.239 0 -6.25388
2310161 1 117.662 152.701 119.467 0 -6.90621
2310283 1 120.848 155.894 119.846 0 -7.35693
618756 1 98.8072 359.866 121.125 0 -7.06857
618876 1 100.63 361.689 121.125 0 -7.06769
2332355 1 98.8071 361.689 122.947 0 -7.06781
2354343 1 189.811 178.232 127.187 0 -6.25379
2342086 1 133.628 237.606 125.93 0 -6.2567
639427 1 200.617 139.953 130.374 0 -6.25516
2369923 1 124.157 211.97 130.278 0 -6.56933
2370042 1 120.834 215.282 130.317 0 -7.52314
639888 1 141.832 152.635 132.129 0 -6.64178
654409 1 145.022 158.909 132.176 0 -6.4572
2384322 1 120.789 211.975 133.644 0 -6.57543
2400288 1 140.006 253.554 138.695 0 -6.25421
2412404 1 127.235 192.946 141.85 0 -6.24733
2413608 1 141.973 222.899 141.878 0 -6.25434
2430282 1 120.739 283.585 145.003 0 -6.54595
2444562 1 120.861 280.328 148.258 0 -6.82412
2473967 1 138.591 296.159 154.489 0 -6.54318
2475407 1 136.784 334.551 154.655 0 -6.25372
2600333 1 159.367 211.813 183.499 0 -6.22061
2628165 1 130.588 186.421 187.699 0 -7.05311
2656955 1 98.5563 184.611 196.096 0 -6.25359
2671484 1 129.26 189.474 197.496 0 -6.75782
2671605 1 132.249 192.843 197.287 0 -7.09205
2685415 1 162.565 175.038 200.68 0 -6.59255
1116186 1 194.261 183.379 234.389 0 -6.255
1146890 1 143.212 235.649 240.766 0 -6.25504
2874030 1 84.3829 215.106 245.079 0 -6.54194
2901870 1 82.6066 187.813 250.315 0 -6.82126
2901991 1 85.8652 191.067 250.439 0 -6.54547
2915319 1 113.256 162.283 253.503 0 -6.25373
2931051 1 151.576 199.338 256.73 0 -7.5172
2931171 1 151.567 202.364 256.743 0 -7.74603
2931172 1 154.754 202.416 256.635 0 -7.74854
2945571 1 151.551 202.281 259.814 0 -7.55449
2945691 1 151.334 205.698 259.642 0 -7.35483
1288841 1 104.922 180.176 275.841 0 -6.25817
3130723 1 126.024 148.274 301.346 0 -6.28794
1460683 1 120.782 152.721 308.938 0 -7.63221
3159881 1 117.668 155.803 309.007 0 -6.93398
3174283 1 124.168 156.012 308.892 0 -6.5703
1475082 1 120.861 155.972 312.359 0 -6.6919
3231045 1 130.521 135.626 323.597 0 -6.48644
1533505 1 68.4692 181.701 325.058 0 -7.18757
3245444 1 127.296 135.61 326.826 0 -6.93776
3259851 1 151.51 135.537 328.135 0 -6.25645
3259843 1 124.066 135.595 330.069 0 -6.84722
3318032 1 90.8858 152.719 340.88 0 -6.25727
3333873 1 94.0818 184.616 344.084 0 -6.26138
596803 1 122.575 157.622 121.278 0 -6.63649
614081 1 118.033 234.081 122.38 0 -6.25746
2382289 1 143.699 154.337 133.82 0 -7.09785
726423 1 188.148 159.37 149.977 0 -6.54793
726544 1 191.403 162.625 149.853 0 -6.82247
741887 1 134.013 186.21 149.848 0 -6.2556
758911 1 86.1051 258.322 154.278 0 -6.25605
760488 1 140.36 297.739 156.261 0 -6.83076
802479 1 111.711 267.787 165.71 0 -6.59851
802598 1 108.338 271.157 165.711 0 -6.59811
816878 1 108.34 267.786 169.072 0 -6.59614
816999 1 111.679 271.127 169.047 0 -7.95021
817484 1 125.578 283.789 168.906 0 -6.57679
817605 1 128.938 287.141 168.896 0 -6.57087
819036 1 100.101 323.377 169.009 0 -6.25454
832004 1 125.617 287.112 172.212 0 -7.53213
858055 1 162.618 211.637 178.347 0 -6.74242
858174 1 159.493 215 178.688 0 -6.6222
886843 1 122.476 211.756 182.986 0 -6.25584
2628164 1 128.772 187.933 189.472 0 -6.7522
914686 1 132.193 188.342 189.495 0 -6.88769
943604 1 127.826 191.387 195.713 0 -7.15637
2685414 1 159.286 175.421 197.557 0 -6.69499
972055 1 164.052 179.92 198.844 0 -6.54445
958126 1 134.002 194.593 199.001 0 -6.90507
1160672 1 87.5441 218.268 245.654 0 -6.54113
1203292 1 153.003 204.093 255.044 0 -7.23607
1232091 1 149.691 203.949 261.353 0 -7.10148
1246099 1 45.901 194.527 264.683 0 -6.25565
1359869 1 77.7921 154.297 288.245 0 -6.25437
1360955 1 96.9288 183.014 288.27 0 -6.25537
1432109 1 79.7513 160.694 304.201 0 -6.25828
1430933 1 156.298 128.803 307.389 0 -6.25409
3218305 1 67.5979 178.416 322.612 0 -7.35698
3232707 1 71.6 178.369 323.091 0 -7.12987
1517797 1 102.058 144.75 325.111 0 -6.60107
3261505 1 68.4201 178.932 326.637 0 -6.88508
1519112 1 87.4116 178.607 325.135 0 -6.60385
1532196 1 102.136 141.566 328.447 0 -6.90028
1532317 1 105.229 144.658 328.452 0 -6.90098
1533511 1 84.2157 178.661 328.482 0 -6.91572
1548151 1 86.2015 183.111 329.85 0 -6.57027
1547328 1 138.489 160.586 331.609 0 -6.55425
1561727 1 135.231 160.72 334.861 0 -6.82233
1577201 1 118.018 191.343 336.106 0 -6.25589
1592425 1 66.9665 213.672 339.301 0 -6.25502
1664550 1 82.9169 216.858 355.25 0 -6.25569
