ITEM: TIMESTEP
91688
ITEM: NUMBER OF ATOMS
51
ITEM: BOX BOUNDS pp pp pp
0 360
0 360
0 360
ITEM: ATOMS id type x y z
498674 1 219.75 225.75 102.75
701587 1 198.75 258.75 144.75
715865 1 192.75 255.75 147.75
715986 1 195.75 258.75 147.75
726521 1 120.75 162.75 150.75
730005 1 132.75 249.75 150.75
730385 1 192.75 258.75 150.75
740794 1 99.75 159.75 153.75
770932 1 153.75 192.75 159.75
771052 1 153.75 195.75 159.75
771053 1 156.75 195.75 159.75
771172 1 153.75 198.75 159.75
772873 1 216.75 240.75 159.75
784733 1 156.75 177.75 162.75
799250 1 147.75 180.75 165.75
799369 1 144.75 183.75 165.75
813770 1 147.75 183.75 168.75
813891 1 150.75 186.75 168.75
826973 1 156.75 153.75 171.75
829024 1 189.75 204.75 171.75
930879 1 114.75 231.75 192.75
2285346 1 197.25 254.25 116.25
2429465 1 194.25 257.25 146.25
2457654 1 161.25 242.25 152.25
2459212 1 155.25 281.25 152.25
2470251 1 152.25 197.25 155.25
2484531 1 152.25 194.25 158.25
2484650 1 149.25 197.25 158.25
2486821 1 182.25 251.25 158.25
2496294 1 161.25 128.25 161.25
2496415 1 164.25 131.25 161.25
2498452 1 155.25 182.25 161.25
2498570 1 149.25 185.25 161.25
2501101 1 182.25 248.25 161.25
2510814 1 161.25 131.25 164.25
2512732 1 155.25 179.25 164.25
2512733 1 158.25 179.25 164.25
2512850 1 149.25 182.25 164.25
2512851 1 152.25 182.25 164.25
2512852 1 155.25 182.25 164.25
2512971 1 152.25 185.25 164.25
2513090 1 149.25 188.25 164.25
2527132 1 155.25 179.25 167.25
2527251 1 152.25 182.25 167.25
2540325 1 134.25 149.25 170.25
2602229 1 86.25 257.25 182.25
2614360 1 119.25 200.25 185.25
2644846 1 137.25 242.25 191.25
2671606 1 137.25 191.25 197.25
2829760 1 119.25 185.25 230.25
2833005 1 134.25 266.25 230.25
