ITEM: TIMESTEP
87168
ITEM: NUMBER OF ATOMS
60
ITEM: BOX BOUNDS pp pp pp
0 360
0 360
0 360
ITEM: ATOMS id type x y z c_myKE c_myPE
2425135 1 161.106 148.367 143.145 0 -6.25295
2511041 1 119.649 136.717 162.272 0 -6.82087
2513195 1 98.5294 191.029 164.233 0 -6.25197
800320 1 111.28 210.159 165.35 0 -6.82082
2539861 1 183.424 135.448 170.597 0 -6.60496
2539982 1 186.608 138.782 170.701 0 -6.90596
2554381 1 183.504 138.792 173.789 0 -6.92372
2556643 1 124.063 199.365 173.807 0 -6.25292
2570213 1 154.846 181.484 177.006 0 -6.83692
2585342 1 186.558 194.253 180.092 0 -8.37725
2585583 1 189.857 200.763 180.022 0 -6.71986
871742 1 184.881 189.753 184.78 0 -8.40235
2599742 1 186.508 194.39 183.223 0 -8.76637
2614141 1 183.347 194.316 186.452 0 -8.54999
2614261 1 183.393 197.487 186.399 0 -8.38033
2614262 1 186.56 197.532 186.426 0 -8.51112
2657811 1 149.584 207.015 194.179 0 -6.25424
2683479 1 110.065 124.08 203.741 0 -6.25326
1028093 1 153.035 141.964 215.284 0 -6.70493
2727291 1 149.632 145.147 215.32 0 -7.03658
2756091 1 149.562 141.926 218.33 0 -7.06908
2782369 1 145.124 73.0297 222.872 0 -6.25388
2813337 1 170.668 132.408 229.293 0 -6.82194
2827617 1 170.79 129.15 232.546 0 -6.54802
1156144 1 194.218 95.353 247.155 0 -6.25401
681175 1 162.692 103.337 140.322 0 -6.70956
695337 1 167.473 96.6586 143.324 0 -8.05193
2408937 1 169.368 98.5554 143.324 0 -8.05271
709857 1 167.475 100.342 147.004 0 -8.05533
756162 1 119.279 185.005 156.25 0 -6.25122
784851 1 149.925 181.856 160.664 0 -6.25866
797441 1 117.878 135.133 164.042 0 -6.54107
2527255 1 160.76 185.139 163.874 0 -6.32658
2513920 1 113.051 211.927 163.766 0 -6.53931
2525941 1 181.916 146.729 170.329 0 -6.27212
842453 1 156.421 183.254 175.231 0 -6.54246
857342 1 184.985 192.696 178.546 0 -7.85901
2570699 1 181.998 189.44 181.699 0 -7.57015
2585220 1 184.973 189.661 181.619 0 -8.16737
2599741 1 184.935 192.771 181.687 0 -8.73346
871863 1 188.131 195.88 181.651 0 -8.34725
871621 1 181.719 192.765 184.848 0 -7.93394
886142 1 184.894 192.842 184.794 0 -8.74818
886262 1 184.942 195.935 184.836 0 -8.77387
886263 1 188.069 196.008 184.792 0 -8.67406
886264 1 191.244 196.022 184.867 0 -7.95507
886383 1 188.076 199.199 184.778 0 -7.92655
900661 1 181.914 195.957 188.155 0 -7.58784
900782 1 184.931 198.995 188.136 0 -7.57898
941110 1 210.535 122.498 197.741 0 -6.25191
2683366 1 133.995 125.69 202.148 0 -6.2521
983451 1 149.936 102.118 207.279 0 -6.25585
2741092 1 149.937 128.898 214.899 0 -6.24975
1013466 1 197.794 132.069 213.691 0 -6.2501
1028211 1 146.816 141.694 214.869 0 -6.61549
1028677 1 105.292 154.385 214.911 0 -6.25213
1145449 1 143.494 197.885 242.316 0 -6.55644
1159850 1 146.745 197.743 245.567 0 -6.81649
1257057 1 167.108 102.091 267.886 0 -6.25335
1472230 1 210.463 77.7554 315.731 0 -6.25474
