ITEM: TIMESTEP
90000
ITEM: NUMBER OF ATOMS
48
ITEM: BOX BOUNDS pp pp pp
0 360
0 360
0 360
ITEM: ATOMS id type x y z
727624 1 189.75 189.75 150.75
740093 1 156.75 141.75 153.75
756183 1 186.75 183.75 156.75
756788 1 201.75 198.75 156.75
757029 1 204.75 204.75 156.75
770705 1 192.75 186.75 159.75
784864 1 189.75 180.75 162.75
812564 1 129.75 153.75 168.75
812696 1 165.75 156.75 168.75
812697 1 168.75 156.75 168.75
815113 1 216.75 216.75 168.75
841364 1 129.75 153.75 174.75
855884 1 129.75 156.75 177.75
869092 1 153.75 126.75 180.75
884335 1 162.75 147.75 183.75
898011 1 150.75 129.75 186.75
898488 1 141.75 141.75 186.75
899086 1 135.75 156.75 186.75
912293 1 156.75 126.75 189.75
912649 1 144.75 135.75 189.75
928232 1 93.75 165.75 192.75
942514 1 99.75 162.75 195.75
942634 1 99.75 165.75 195.75
956794 1 99.75 159.75 198.75
998805 1 132.75 129.75 207.75
1015234 1 99.75 180.75 210.75
1130071 1 90.75 171.75 234.75
1130789 1 84.75 189.75 234.75
2425022 1 185.25 146.25 146.25
2453094 1 161.25 128.25 152.25
2454052 1 155.25 152.25 152.25
2469788 1 203.25 185.25 155.25
2470989 1 206.25 215.25 155.25
2484910 1 209.25 203.25 158.25
2499550 1 209.25 209.25 161.25
2512481 1 122.25 173.25 164.25
2539372 1 155.25 125.25 170.25
2597924 1 131.25 149.25 182.25
2640886 1 137.25 143.25 191.25
2684673 1 98.25 158.25 200.25
2711801 1 122.25 116.25 206.25
2713836 1 107.25 167.25 206.25
2728716 1 107.25 179.25 209.25
2743113 1 98.25 179.25 212.25
2757514 1 101.25 179.25 215.25
2786909 1 86.25 194.25 221.25
2857947 1 80.25 170.25 236.25
2872945 1 74.25 185.25 239.25
