ITEM: TIMESTEP
90000
ITEM: NUMBER OF ATOMS
54
ITEM: BOX BOUNDS pp pp pp
0 360
0 360
0 360
ITEM: ATOMS id type x y z
655492 1 153.75 186.75 135.75
669893 1 156.75 186.75 138.75
684053 1 156.75 180.75 141.75
742872 1 213.75 210.75 153.75
814155 1 222.75 192.75 168.75
856846 1 135.75 180.75 177.75
856965 1 132.75 183.75 177.75
856966 1 135.75 183.75 177.75
887242 1 243.75 219.75 183.75
914937 1 168.75 192.75 189.75
915057 1 168.75 195.75 189.75
915176 1 165.75 198.75 189.75
929217 1 168.75 189.75 192.75
929337 1 168.75 192.75 192.75
929456 1 165.75 195.75 192.75
959100 1 177.75 216.75 198.75
973495 1 162.75 216.75 201.75
985133 1 156.75 147.75 204.75
1003053 1 276.75 234.75 207.75
1043334 1 159.75 162.75 216.75
1044417 1 168.75 189.75 216.75
1145588 1 201.75 198.75 237.75
1203290 1 147.75 201.75 249.75
1229221 1 180.75 129.75 255.75
1246751 1 210.75 207.75 258.75
1290183 1 186.75 213.75 267.75
2383253 1 158.25 182.25 137.25
2397773 1 158.25 185.25 140.25
2456368 1 263.25 209.25 152.25
2598803 1 248.25 170.25 182.25
2599737 1 170.25 194.25 182.25
2600721 1 242.25 218.25 182.25
2614136 1 167.25 194.25 185.25
2614377 1 170.25 200.25 185.25
2628440 1 239.25 191.25 188.25
2628537 1 170.25 194.25 188.25
2628656 1 167.25 197.25 188.25
2641601 1 122.25 161.25 191.25
2642936 1 167.25 194.25 191.25
2643056 1 167.25 197.25 191.25
2643175 1 164.25 200.25 191.25
2656847 1 140.25 182.25 194.25
2657095 1 164.25 188.25 194.25
2657216 1 167.25 191.25 194.25
2686154 1 221.25 194.25 200.25
2699450 1 149.25 167.25 203.25
2700553 1 218.25 194.25 203.25
2700554 1 221.25 194.25 203.25
2771213 1 158.25 161.25 218.25
2801844 1 251.25 206.25 224.25
2816243 1 248.25 206.25 227.25
2829652 1 155.25 182.25 230.25
2873588 1 203.25 200.25 239.25
2900830 1 209.25 161.25 245.25
