ITEM: TIMESTEP
86186
ITEM: NUMBER OF ATOMS
67
ITEM: BOX BOUNDS pp pp pp
0 360
0 360
0 360
ITEM: ATOMS id type x y z
755813 1 156.75 174.75 156.75
755814 1 159.75 174.75 156.75
755818 1 171.75 174.75 156.75
770211 1 150.75 174.75 159.75
770214 1 159.75 174.75 159.75
770216 1 165.75 174.75 159.75
770331 1 150.75 177.75 159.75
784141 1 180.75 162.75 162.75
784614 1 159.75 174.75 162.75
784615 1 162.75 174.75 162.75
799014 1 159.75 174.75 165.75
799015 1 162.75 174.75 165.75
813414 1 159.75 174.75 168.75
813526 1 135.75 177.75 168.75
813534 1 159.75 177.75 168.75
814027 1 198.75 189.75 168.75
827217 1 168.75 159.75 171.75
827573 1 156.75 168.75 171.75
827577 1 168.75 168.75 171.75
842100 1 177.75 171.75 174.75
842216 1 165.75 174.75 174.75
842336 1 165.75 177.75 174.75
855662 1 183.75 150.75 177.75
870776 1 165.75 168.75 180.75
884927 1 138.75 162.75 183.75
885910 1 207.75 186.75 183.75
898871 1 210.75 150.75 186.75
900187 1 198.75 183.75 186.75
913261 1 180.75 150.75 189.75
927063 1 186.75 135.75 192.75
928146 1 195.75 162.75 192.75
942062 1 183.75 150.75 195.75
958272 1 213.75 195.75 198.75
986717 1 228.75 186.75 204.75
1000505 1 192.75 171.75 207.75
1002064 1 189.75 210.75 207.75
1002073 1 216.75 210.75 207.75
1002316 1 225.75 216.75 207.75
1030753 1 216.75 207.75 213.75
1059186 1 195.75 198.75 219.75
1072503 1 186.75 171.75 222.75
2439410 1 149.25 146.25 149.25
2440130 1 149.25 164.25 149.25
2454646 1 137.25 167.25 152.25
2469291 1 152.25 173.25 155.25
2483693 1 158.25 173.25 158.25
2483694 1 161.25 173.25 158.25
2483813 1 158.25 176.25 158.25
2498571 1 152.25 185.25 161.25
2512254 1 161.25 167.25 164.25
2512374 1 161.25 170.25 164.25
2512494 1 161.25 173.25 164.25
2512614 1 161.25 176.25 164.25
2527014 1 161.25 176.25 167.25
2527130 1 149.25 179.25 167.25
2527134 1 161.25 179.25 167.25
2541053 1 158.25 167.25 170.25
2541417 1 170.25 176.25 170.25
2555102 1 185.25 158.25 173.25
2556054 1 161.25 182.25 173.25
2584372 1 155.25 170.25 179.25
2584387 1 200.25 170.25 179.25
2654700 1 179.25 128.25 194.25
2656245 1 134.25 167.25 194.25
2671633 1 218.25 191.25 197.25
2701014 1 161.25 206.25 203.25
2757656 1 167.25 182.25 215.25
