ITEM: TIMESTEP
95000
ITEM: NUMBER OF ATOMS
132
ITEM: BOX BOUNDS pp pp pp
0 360
0 360
0 360
ITEM: ATOMS id type x y z
654407 1 138.75 159.75 135.75
755212 1 153.75 159.75 156.75
768300 1 177.75 126.75 159.75
784023 1 186.75 159.75 162.75
826260 1 177.75 135.75 171.75
827827 1 198.75 174.75 171.75
827939 1 174.75 177.75 171.75
827944 1 189.75 177.75 171.75
841137 1 168.75 147.75 174.75
841497 1 168.75 156.75 174.75
854704 1 189.75 126.75 177.75
855543 1 186.75 147.75 177.75
855780 1 177.75 153.75 177.75
855781 1 180.75 153.75 177.75
855900 1 177.75 156.75 177.75
855901 1 180.75 156.75 177.75
856142 1 183.75 162.75 177.75
856386 1 195.75 168.75 177.75
869700 1 177.75 141.75 180.75
869819 1 174.75 144.75 180.75
869940 1 177.75 147.75 180.75
870055 1 162.75 150.75 180.75
870060 1 177.75 150.75 180.75
870180 1 177.75 153.75 180.75
883984 1 189.75 138.75 183.75
884100 1 177.75 141.75 183.75
884220 1 177.75 144.75 183.75
884340 1 177.75 147.75 183.75
884460 1 177.75 150.75 183.75
884580 1 177.75 153.75 183.75
884820 1 177.75 159.75 183.75
898381 1 180.75 138.75 186.75
898500 1 177.75 141.75 186.75
898621 1 180.75 144.75 186.75
898740 1 177.75 147.75 186.75
898860 1 177.75 150.75 186.75
898980 1 177.75 153.75 186.75
912541 1 180.75 132.75 189.75
912781 1 180.75 138.75 189.75
912901 1 180.75 141.75 189.75
913021 1 180.75 144.75 189.75
913141 1 180.75 147.75 189.75
913989 1 204.75 168.75 189.75
914349 1 204.75 177.75 189.75
926341 1 180.75 117.75 192.75
926824 1 189.75 129.75 192.75
927301 1 180.75 141.75 192.75
927421 1 180.75 144.75 192.75
927541 1 180.75 147.75 192.75
927661 1 180.75 150.75 192.75
941586 1 195.75 138.75 195.75
941701 1 180.75 141.75 195.75
955986 1 195.75 138.75 198.75
983946 1 195.75 117.75 204.75
984304 1 189.75 126.75 204.75
984541 1 180.75 132.75 204.75
1131678 1 231.75 210.75 234.75
1160360 1 237.75 207.75 240.75
1175242 1 243.75 219.75 243.75
1204163 1 246.75 222.75 249.75
1291169 1 264.75 237.75 267.75
2469906 1 197.25 188.25 155.25
2496423 1 188.25 131.25 161.25
2511659 1 176.25 152.25 164.25
2512017 1 170.25 161.25 164.25
2525457 1 170.25 137.25 167.25
2525818 1 173.25 146.25 167.25
2526178 1 173.25 155.25 167.25
2527141 1 182.25 179.25 167.25
2539977 1 170.25 140.25 170.25
2540577 1 170.25 155.25 170.25
2554259 1 176.25 137.25 173.25
2556181 1 182.25 185.25 173.25
2569256 1 167.25 152.25 176.25
2569501 1 182.25 158.25 176.25
2569981 1 182.25 170.25 176.25
2582583 1 188.25 125.25 179.25
2582944 1 191.25 134.25 179.25
2583299 1 176.25 143.25 179.25
2583303 1 188.25 143.25 179.25
2583419 1 176.25 146.25 179.25
2583539 1 176.25 149.25 179.25
2583659 1 176.25 152.25 179.25
2583899 1 176.25 158.25 179.25
2584019 1 176.25 161.25 179.25
2584141 1 182.25 164.25 179.25
2584144 1 191.25 164.25 179.25
2597582 1 185.25 140.25 182.25
2597699 1 176.25 143.25 182.25
2597819 1 176.25 146.25 182.25
2597940 1 179.25 149.25 182.25
2598060 1 179.25 152.25 182.25
2598180 1 179.25 155.25 182.25
2611386 1 197.25 125.25 185.25
2611501 1 182.25 128.25 185.25
2611860 1 179.25 137.25 185.25
2611861 1 182.25 137.25 185.25
2611980 1 179.25 140.25 185.25
2612100 1 179.25 143.25 185.25
2612220 1 179.25 146.25 185.25
2612340 1 179.25 149.25 185.25
2612459 1 176.25 152.25 185.25
2626380 1 179.25 140.25 188.25
2626500 1 179.25 143.25 188.25
2626620 1 179.25 146.25 188.25
2626740 1 179.25 149.25 188.25
2626861 1 182.25 152.25 188.25
2640423 1 188.25 131.25 191.25
2640537 1 170.25 134.25 191.25
2640781 1 182.25 140.25 191.25
2640901 1 182.25 143.25 191.25
2640905 1 194.25 143.25 191.25
2641021 1 182.25 146.25 191.25
2641141 1 182.25 149.25 191.25
2654463 1 188.25 122.25 194.25
2654823 1 188.25 131.25 194.25
2655181 1 182.25 140.25 194.25
2655301 1 182.25 143.25 194.25
2655421 1 182.25 146.25 194.25
2655663 1 188.25 152.25 194.25
2655781 1 182.25 155.25 194.25
2655784 1 191.25 155.25 194.25
2668747 1 200.25 119.25 197.25
2682907 1 200.25 113.25 200.25
2696949 1 206.25 104.25 203.25
2697298 1 173.25 113.25 203.25
2697778 1 173.25 125.25 203.25
2698021 1 182.25 131.25 203.25
2740983 1 188.25 125.25 212.25
2786955 1 224.25 194.25 221.25
2874200 1 239.25 215.25 239.25
3004409 1 266.25 230.25 266.25
