ITEM: TIMESTEP
87234
ITEM: NUMBER OF ATOMS
78
ITEM: BOX BOUNDS pp pp pp
0 360
0 360
0 360
ITEM: ATOMS id type x y z c_myKE c_myPE
2254741 1 183.386 210.182 104.881 0 -6.25536
2292183 1 189.665 58.9223 114.324 0 -6.55402
2292304 1 192.915 62.1798 114.463 0 -6.81489
2323862 1 186.576 133.651 122.769 0 -6.24937
2380013 1 156.028 97.1904 135.609 0 -7.04179
2437860 1 180.095 103.576 146.254 0 -6.56926
709982 1 183.418 106.887 146.295 0 -7.52079
724261 1 183.463 103.581 149.621 0 -6.5738
2498705 1 194.08 187.868 161.095 0 -6.4683
2525601 1 245.242 136.834 165.488 0 -6.25454
2540832 1 216.382 161.047 167.361 0 -6.72935
2555351 1 215.25 164.372 172.488 0 -7.1683
2583521 1 117.644 148.348 178.234 0 -6.25289
2580307 1 200.565 62.2234 180.186 0 -6.25496
2626380 1 181.928 138.709 187.542 0 -8.14839
912784 1 183.719 138.593 189.462 0 -8.08013
2641018 1 181.778 142.307 191.212 0 -8.06981
2669577 1 170.462 138.736 199.206 0 -7.56034
2684216 1 167.333 142.047 199.265 0 -8.03355
956095 1 167.248 145.115 199.252 0 -7.3376
2684574 1 164.119 145.116 202.389 0 -7.25199
2712786 1 197.607 138.643 206.961 0 -6.61787
1014871 1 84.5076 171.9 210.134 0 -6.25273
2741465 1 194.013 135.343 213.5 0 -6.76145
2755504 1 191.051 125.98 215.293 0 -7.58251
2770142 1 191.044 129.158 215.371 0 -8.20917
2756932 1 154.682 164.324 218.471 0 -6.25805
2971146 1 197.464 114.385 266.23 0 -6.5289
2985545 1 194.206 114.48 269.487 0 -6.82276
462428 1 202.154 29.9319 90.5206 0 -6.25564
623352 1 214.925 98.8955 125.611 0 -6.25349
2350625 1 191.458 76.4828 127.477 0 -6.54971
2354706 1 198.991 186.276 128.809 0 -6.25529
2379544 1 191.331 79.7409 130.726 0 -6.82164
652133 1 154.263 98.6862 133.859 0 -6.75463
652134 1 157.577 99.0568 133.827 0 -6.91622
679267 1 200.911 52.2819 140.311 0 -6.25377
727850 1 144.778 195.86 147.959 0 -6.82277
2470009 1 146.698 194.587 149.878 0 -6.82235
2467509 1 208.556 127.63 153.066 0 -6.25538
752954 1 223.138 98.9867 156.176 0 -6.56927
767236 1 223.139 95.623 159.543 0 -6.57417
781756 1 226.447 98.9475 159.499 0 -7.52376
784746 1 194.813 181.733 162.579 0 -6.43302
813071 1 213.68 166.746 169.15 0 -7.0247
854599 1 239.215 119.295 176.656 0 -6.25623
868628 1 204.039 109.609 181.692 0 -6.54928
883029 1 207.296 109.735 184.946 0 -6.82015
2640781 1 178.435 137.068 185.398 0 -7.39748
2610317 1 234.086 92.5418 188.152 0 -6.25371
883980 1 179.032 137.299 189.873 0 -7.34725
2655181 1 178.546 136.931 192.77 0 -7.55397
2683735 1 168.938 137.288 200.876 0 -8.05662
970257 1 172.164 137.253 200.997 0 -7.82893
2684094 1 165.788 140.386 200.823 0 -8.26525
2683620 1 168.928 140.378 200.862 0 -8.37939
941935 1 165.692 143.44 200.872 0 -8.03023
971345 1 194.55 162.735 202.131 0 -6.26022
970377 1 171.94 136.942 204.043 0 -7.34183
2713017 1 168.813 140.246 204.142 0 -8.13363
984897 1 165.704 143.42 204.118 0 -7.92706
983716 1 227.706 106.518 207.304 0 -6.2548
999306 1 195.731 140.457 208.484 0 -7.66705
1013343 1 189.539 130.703 210.371 0 -7.58317
1013586 1 195.5 137.098 211.873 0 -7.06461
1027623 1 189.449 127.578 213.781 0 -8.08837
2755861 1 184.977 132.099 214.921 0 -7.67317
1027743 1 189.487 130.686 213.493 0 -8.32659
1013465 1 192.595 130.671 213.822 0 -7.49589
1013569 1 143.637 135.103 214.044 0 -6.77698
1027863 1 189.376 133.821 213.352 0 -7.49699
1041904 1 192.472 127.54 217.021 0 -7.50831
1027849 1 145.055 131.86 216.554 0 -7.06974
1027850 1 146.875 133.68 216.552 0 -7.05559
1059645 1 128.812 213.73 223.253 0 -6.25295
1085476 1 229.561 131.937 229.552 0 -6.53401
1099877 1 232.818 132.043 232.811 0 -6.81947
1172809 1 143.51 159.521 246.832 0 -6.25588
