ITEM: TIMESTEP
90000
ITEM: NUMBER OF ATOMS
52
ITEM: BOX BOUNDS pp pp pp
0 360
0 360
0 360
ITEM: ATOMS id type x y z c_myKE c_myPE
2165822 1 186.494 143.429 85.8767 0.544716 -6.03903
2266973 1 158.2 154.335 108.006 0.211573 -6.36047
2395730 1 148.35 130.777 138.595 0.130944 -6.14557
2468321 1 119.72 148.311 154.521 0.0263236 -6.6951
2556416 1 165.62 192.703 174.119 0.273612 -6.40862
2570816 1 165.826 192.814 176.951 0.0799552 -7.3195
900289 1 141.762 186.356 184.763 0.376908 -6.32168
2612567 1 138.553 151.411 191.244 0.173559 -6.66507
2642952 1 218.457 194.183 190.634 0.165164 -5.68169
927889 1 142.016 151.615 193.995 0.0992377 -7.38592
986700 1 177.235 184.561 203.866 0.274629 -6.61091
2729334 1 159.26 196.205 210.266 0.505525 -6.85674
1015835 1 98.6016 193.074 215.25 0.0154844 -6.37507
2760435 1 226.076 256.802 216.169 0.0117963 -7.18761
2774072 1 88.9234 235.864 219.527 0.194077 -6.61396
2774836 1 229.386 256.656 219.523 0.126206 -6.5403
2786835 1 225.855 191.315 224.533 0.172457 -6.52522
2800472 1 90.9974 172.034 227.929 0.136474 -6.17346
2846227 1 200.938 240.761 235.649 0.369168 -6.18116
2933594 1 224.981 266.248 254.669 0.0114146 -6.56378
3004881 1 247.316 245.112 270.754 0.022439 -7.05348
3061878 1 237.473 231.356 285.457 0.157694 -6.58163
3076400 1 241.056 233.99 287.06 0.0494443 -6.77013
653336 1 164.286 130.765 132.052 0.15184 -6.23157
726664 1 191.366 165.758 149.656 0.0528464 -5.87362
727263 1 188.421 181.992 149.234 0.297307 -5.80739
742501 1 181.668 203.743 153.059 0.200234 -6.01853
842937 1 167.544 194.545 175.35 0.144351 -6.9509
884101 1 179.998 140.157 183.087 0.04489 -6.50901
2612809 1 143.302 156.283 189.535 0.190653 -6.8848
928132 1 148.188 157.479 191.31 0.0665174 -7.10496
927890 1 143.636 156.494 195.838 0.121788 -6.76341
927902 1 184.956 156.121 194.69 0.0598684 -6.16894
2685047 1 137.268 168.918 199.032 0.162354 -6.46231
957781 1 181.977 183.105 199.038 0.134498 -7.34733
2671732 1 156.401 195.686 198.894 0.0760351 -6.88695
958371 1 153.213 198.879 198.579 0.0907163 -7.15554
2672075 1 96.8868 205.018 197.889 0.141724 -6.259
970621 1 179.933 140.332 205.257 0.151127 -6.40299
986465 1 194.557 179.871 207.217 0.115031 -6.99788
986584 1 191.306 182.964 207.279 0.0748284 -6.68466
2741806 1 137.09 143.185 214.958 0.0130815 -5.5174
1032436 1 227.852 255.03 214.919 0.0524847 -6.86773
2756320 1 116.212 149.997 216.64 0.254285 0
1059077 1 230.576 195.858 223.028 0.014306 -6.77633
1104300 1 176.552 251.953 230.463 0.396727 -6.74069
1116676 1 229.945 197.428 235.74 0.320181 -6.06545
1146908 1 202.364 235.872 240.13 0.0247064 -7.17564
1161188 1 202.259 232.997 243.544 0.0271504 -6.63034
1174596 1 101.933 205.358 248.541 0.216148 -5.75325
1219745 1 194.69 258.216 256.174 0.166064 -6.42712
1291281 1 245.321 243.369 272.509 0.0247754 -6.29175
