ITEM: TIMESTEP
90000
ITEM: NUMBER OF ATOMS
52
ITEM: BOX BOUNDS pp pp pp
0 360
0 360
0 360
ITEM: ATOMS id type x y z
740933 1 156.75 162.75 153.75
740934 1 159.75 162.75 153.75
871241 1 120.75 180.75 180.75
927535 1 162.75 147.75 192.75
928007 1 138.75 159.75 192.75
928603 1 126.75 174.75 192.75
928963 1 126.75 183.75 192.75
943721 1 120.75 192.75 195.75
971089 1 144.75 156.75 201.75
972048 1 141.75 180.75 201.75
973121 1 120.75 207.75 201.75
985377 1 168.75 153.75 204.75
985847 1 138.75 165.75 204.75
986929 1 144.75 192.75 204.75
987791 1 210.75 213.75 204.75
1000247 1 138.75 165.75 207.75
1000961 1 120.75 183.75 207.75
1014168 1 141.75 153.75 210.75
1043209 1 144.75 159.75 216.75
1102983 1 186.75 213.75 228.75
1117753 1 216.75 222.75 231.75
1146913 1 216.75 231.75 237.75
1248317 1 228.75 246.75 258.75
1319840 1 237.75 234.75 273.75
2454171 1 152.25 155.25 152.25
2498333 1 158.25 179.25 161.25
2511171 1 152.25 140.25 164.25
2540089 1 146.25 143.25 170.25
2628520 1 119.25 194.25 188.25
2641958 1 113.25 170.25 191.25
2656963 1 128.25 185.25 194.25
2670171 1 152.25 155.25 197.25
2670643 1 128.25 167.25 197.25
2671482 1 125.25 188.25 197.25
2671961 1 122.25 200.25 197.25
2685762 1 125.25 185.25 200.25
2686259 1 176.25 197.25 200.25
2700163 1 128.25 185.25 203.25
2700280 1 119.25 188.25 203.25
2714325 1 134.25 179.25 206.25
2729192 1 95.25 191.25 209.25
2729590 1 209.25 200.25 209.25
2757902 1 185.25 188.25 215.25
2758381 1 182.25 200.25 215.25
2758512 1 215.25 203.25 215.25
2772781 1 182.25 200.25 218.25
2773026 1 197.25 206.25 218.25
2860029 1 206.25 221.25 236.25
2873820 1 179.25 206.25 239.25
2903359 1 236.25 224.25 245.25
2918118 1 233.25 233.25 248.25
3019041 1 242.25 236.25 269.25
