ITEM: TIMESTEP
85000
ITEM: NUMBER OF ATOMS
50
ITEM: BOX BOUNDS pp pp pp
0 360
0 360
0 360
ITEM: ATOMS id type x y z c_myKE c_myPE
496737 1 167.156 178.025 93.9864 0.329774 -5.50663
2270334 1 158.962 242.042 108.11 0.104704 -7.13103
2267080 1 116.616 156.015 110.046 0.194189 -5.9574
2284854 1 159.159 245.152 111.148 0.0887774 -6.81628
2356133 1 152.781 226.203 129.291 0.120625 -7.72876
2365853 1 158.898 100.479 132.321 0.223012 -6.79193
642773 1 156.146 226.169 132.31 0.147566 -8.63038
642534 1 159.448 226.189 132.532 0.169798 -8.03499
2356372 1 152.88 229.267 132.233 0.366498 -7.60047
2409782 1 186.731 122.887 139.947 0.214274 -7.05333
683096 1 159.146 155.865 141.66 0.031054 -6.98909
2425613 1 154.579 161.104 146.346 0.0990924 -7.64686
712493 1 151.481 164.426 146.614 0.151645 -7.45346
2439643 1 125.874 149.812 148.586 0.0691672 -7.29095
782463 1 188.196 119.32 161.2 0.0871565 -6.64309
2553764 1 127.035 120.84 172.111 0.0880205 -6.77976
2585700 1 180.099 203.842 178.565 0.545438 -7.35694
2600094 1 159.145 205.96 181.617 0.159745 -7.56657
2600215 1 162.15 208.851 181.807 0.0713388 -6.40414
2626505 1 195.969 138.533 187.832 0.0535102 -7.42321
2626854 1 162.026 151.112 187.729 0.111737 -6.54646
2640786 1 197.456 135.807 190.93 0.14158 -7.50722
2626385 1 194.077 138.698 189.739 0.297346 -7.28562
524445 1 128.833 149.845 103.437 0.242376 -6.16074
2356012 1 157.742 224.531 127.833 0.290459 -7.61998
656814 1 157.8 221.652 130.93 0.310704 -8.09626
656932 1 153.035 223.038 132.152 0.153279 -8.70503
642414 1 157.831 224.626 130.76 0.286119 -8.55297
2370293 1 161.042 224.705 130.83 0.041901 -7.9362
642652 1 154.53 227.884 130.681 0.220383 -8.37142
657052 1 154.487 227.903 133.872 0.451401 -8.35815
2384932 1 157.587 227.614 134.076 0.208216 -7.60896
681782 1 185.068 121.201 138.557 0.0601457 -7.27597
2396694 1 156.061 156.233 138.618 0.0355112 -7.56798
668935 1 159.31 159.442 138.708 0.356686 -7.17945
2411335 1 154.211 157.759 140.342 0.0481039 -7.71385
654775 1 157.641 160.751 140.216 0.0455632 -7.48291
711645 1 129.064 149.872 144.783 0.191749 -7.45528
712132 1 152.676 159.663 144.942 0.339482 -7.86255
726533 1 152.957 162.867 145.061 0.146154 -7.60226
726044 1 125.671 146.57 148.248 0.193435 -7.08305
711644 1 127.475 148.032 146.621 0.274152 -7.11818
2454773 1 149.657 166.015 148.341 0.472161 -6.79534
783044 1 127.44 131.815 160.988 0.113025 -6.25189
872094 1 157.155 204.416 179.972 0.113658 -7.86635
869825 1 193.008 143.411 182.151 0.17532 -6.41965
871981 1 180.171 201.013 181.776 0.175971 -7.07949
886494 1 157.422 204.185 182.966 0.0919231 -6.50208
872100 1 176.635 203.932 181.668 0.143873 -6.90455
900896 1 163.816 204.018 185.956 0.290823 -6.62723
