ITEM: TIMESTEP
85384
ITEM: NUMBER OF ATOMS
50
ITEM: BOX BOUNDS pp pp pp
0 360
0 360
0 360
ITEM: ATOMS id type x y z
496854 1 159.75 180.75 102.75
526495 1 162.75 201.75 108.75
555182 1 183.75 198.75 114.75
583849 1 144.75 195.75 120.75
627056 1 165.75 195.75 129.75
641456 1 165.75 195.75 132.75
656094 1 159.75 201.75 135.75
667860 1 177.75 135.75 138.75
670379 1 174.75 198.75 138.75
684299 1 174.75 186.75 141.75
696901 1 180.75 141.75 144.75
712615 1 162.75 174.75 147.75
725340 1 177.75 132.75 150.75
740469 1 204.75 150.75 153.75
741053 1 156.75 165.75 153.75
741294 1 159.75 171.75 153.75
754743 1 186.75 147.75 156.75
755110 1 207.75 156.75 156.75
770086 1 135.75 171.75 159.75
784481 1 120.75 171.75 162.75
784746 1 195.75 177.75 162.75
798532 1 153.75 162.75 165.75
812816 1 165.75 159.75 168.75
856732 1 153.75 177.75 177.75
2238415 1 164.25 161.25 107.25
2239372 1 155.25 185.25 107.25
2240331 1 152.25 209.25 107.25
2252335 1 164.25 149.25 110.25
2253655 1 164.25 182.25 110.25
2268543 1 188.25 194.25 113.25
2324217 1 170.25 146.25 125.25
2326136 1 167.25 194.25 125.25
2340776 1 167.25 200.25 128.25
2367423 1 188.25 146.25 134.25
2369335 1 164.25 194.25 134.25
2382173 1 158.25 155.25 137.25
2383375 1 164.25 185.25 137.25
2412180 1 179.25 185.25 143.25
2454779 1 176.25 170.25 152.25
2467740 1 179.25 134.25 155.25
2483565 1 134.25 170.25 158.25
2497725 1 134.25 164.25 161.25
2512137 1 170.25 164.25 164.25
2526655 1 164.25 167.25 167.25
2526766 1 137.25 170.25 167.25
2540447 1 140.25 152.25 170.25
2555571 1 152.25 170.25 173.25
2584248 1 143.25 167.25 179.25
2626385 1 194.25 140.25 188.25
2640898 1 173.25 143.25 191.25
