ITEM: TIMESTEP
98598
ITEM: NUMBER OF ATOMS
77
ITEM: BOX BOUNDS pp pp pp
0 360
0 360
0 360
ITEM: ATOMS id type x y z
683954 1 219.75 177.75 141.75
711531 1 150.75 147.75 147.75
727158 1 231.75 177.75 150.75
741192 1 213.75 168.75 153.75
741435 1 222.75 174.75 153.75
755347 1 198.75 162.75 156.75
755470 1 207.75 165.75 156.75
769508 1 201.75 156.75 159.75
769509 1 204.75 156.75 159.75
770115 1 222.75 171.75 159.75
770470 1 207.75 180.75 159.75
784148 1 201.75 162.75 162.75
797930 1 147.75 147.75 165.75
798050 1 147.75 150.75 165.75
798913 1 216.75 171.75 165.75
812690 1 147.75 156.75 168.75
813310 1 207.75 171.75 168.75
814029 1 204.75 189.75 168.75
814032 1 213.75 189.75 168.75
827342 1 183.75 162.75 171.75
827345 1 192.75 162.75 171.75
827830 1 207.75 174.75 171.75
828068 1 201.75 180.75 171.75
842468 1 201.75 180.75 174.75
855052 1 153.75 135.75 177.75
855799 1 234.75 153.75 177.75
855800 1 237.75 153.75 177.75
856628 1 201.75 174.75 177.75
857112 1 213.75 186.75 177.75
872351 1 210.75 207.75 180.75
886031 1 210.75 189.75 183.75
886389 1 204.75 198.75 183.75
912896 1 165.75 141.75 189.75
941148 1 321.75 126.75 195.75
943754 1 219.75 192.75 195.75
984230 1 327.75 123.75 204.75
1000745 1 192.75 177.75 207.75
1012910 1 327.75 120.75 210.75
1027788 1 321.75 132.75 213.75
1041827 1 318.75 123.75 216.75
1056827 1 318.75 138.75 219.75
2382068 1 203.25 152.25 137.25
2411949 1 206.25 179.25 143.25
2425009 1 146.25 146.25 146.25
2439669 1 206.25 152.25 149.25
2440150 1 209.25 164.25 149.25
2440387 1 200.25 170.25 149.25
2455630 1 209.25 191.25 152.25
2468945 1 194.25 164.25 155.25
2469545 1 194.25 179.25 155.25
2484798 1 233.25 200.25 158.25
2497749 1 206.25 164.25 161.25
2497866 1 197.25 167.25 161.25
2498471 1 212.25 182.25 161.25
2511411 1 152.25 146.25 164.25
2512389 1 206.25 170.25 164.25
2513229 1 206.25 191.25 164.25
2526170 1 149.25 155.25 167.25
2569993 1 218.25 170.25 176.25
2570109 1 206.25 173.25 176.25
2570229 1 206.25 176.25 176.25
2570353 1 218.25 179.25 176.25
2571058 1 173.25 197.25 176.25
2583654 1 161.25 152.25 179.25
2584268 1 203.25 167.25 179.25
2584388 1 203.25 170.25 179.25
2597570 1 149.25 140.25 182.25
2599029 1 206.25 176.25 182.25
2613302 1 185.25 173.25 185.25
2685911 1 212.25 188.25 200.25
2712471 1 332.25 131.25 206.25
2726625 1 314.25 125.25 209.25
2726868 1 323.25 131.25 209.25
2727100 1 299.25 137.25 209.25
2755189 1 326.25 119.25 215.25
2755426 1 317.25 125.25 215.25
2755907 1 320.25 137.25 215.25
