ITEM: TIMESTEP
87392
ITEM: NUMBER OF ATOMS
49
ITEM: BOX BOUNDS pp pp pp
0 360
0 360
0 360
ITEM: ATOMS id type x y z c_myKE c_myPE
2398624 1 192.982 208.889 138.746 0 -6.25535
2467734 1 165.582 128.994 146.247 0 -6.56797
711174 1 161.05 133.695 145.045 0 -6.59648
2481895 1 162.207 128.986 149.6 0 -6.57415
2483932 1 148.152 179.792 158.796 0 -8.06731
770573 1 148.153 177.892 160.692 0 -8.07757
770572 1 151.842 181.575 160.703 0 -8.06005
798418 1 170.492 160.894 164.01 0 -7.95756
2526415 1 164.196 164.103 164.038 0 -7.97211
798775 1 164.189 167.247 164.11 0 -8.19669
2512256 1 167.342 167.356 164.004 0 -7.52947
2512374 1 160.849 170.56 164.127 0 -6.64295
799249 1 145.169 184.587 165.481 0 -6.71855
2514532 1 154.849 226.212 164.264 0 -7.103
798178 1 170.543 157.823 167.254 0 -8.18773
2526057 1 173.776 157.8 167.338 0 -7.7906
2526536 1 167.377 160.954 167.223 0 -8.3918
798297 1 170.442 160.875 167.222 0 -8.6374
2512134 1 157.938 164.447 167.628 0 -7.33687
798657 1 167.425 164.13 167.334 0 -8.21354
2540934 1 162.446 168.936 168.54 0 -7.58281
2526775 1 164.236 170.485 167.195 0 -7.83292
2543074 1 97.2953 219.693 168.682 0 -6.2558
856374 1 158.149 167.372 170.624 0 -7.15793
2614021 1 181.428 192.961 184.693 0 -6.90756
2628301 1 181.515 189.645 187.898 0 -6.59393
2614019 1 176.973 194.334 186.708 0 -6.56752
2643422 1 186.624 208.906 192.989 0 -6.25073
2671240 1 114.373 183.202 197.55 0 -6.54137
2743964 1 129.193 202.506 213.346 0 -6.25421
2785614 1 159.14 161.051 224.869 0 -6.25339
627770 1 144.783 214.902 127.57 0 -6.25392
682744 1 191.355 144.745 138.382 0 -6.25429
673257 1 169.045 275.515 137.139 0 -6.2547
771274 1 95.6961 202.146 157.515 0 -6.25255
797575 1 160.667 137.017 162.653 0 -6.25924
784376 1 165.7 169 162.57 0 -7.50415
2526297 1 172.119 159.391 165.65 0 -8.20606
798537 1 168.917 162.547 165.641 0 -8.30921
798655 1 162.781 165.678 165.752 0 -8.23492
800932 1 153.445 224.546 165.848 0 -7.16011
801052 1 153.069 227.562 165.943 0 -6.99834
812698 1 172.044 156.191 168.985 0 -7.29058
812816 1 168.96 159.402 168.963 0 -8.03273
813056 1 165.935 162.436 169.018 0 -7.49721
827091 1 143.506 160.68 172.236 0 -6.26563
2656961 1 115.957 184.973 195.781 0 -6.8252
972663 1 186.28 197.764 202.228 0 -6.26309
999523 1 122.445 144.743 208.55 0 -6.25616
