ITEM: TIMESTEP
87346
ITEM: NUMBER OF ATOMS
61
ITEM: BOX BOUNDS pp pp pp
0 360
0 360
0 360
ITEM: ATOMS id type x y z c_myKE c_myPE
2153574 1 161.148 200.65 82.6008 0 -7.13687
2153693 1 157.82 203.706 82.4223 0 -6.70271
2268295 1 161.89 189.768 107.129 0 -7.73102
526135 1 165.164 190.057 106.727 0 -7.45498
2254135 1 165.444 193.33 107.124 0 -7.74437
569215 1 162.433 189.435 110.236 0 -7.68056
2254136 1 165.786 192.775 110.236 0 -7.67283
2282815 1 162.85 190.439 112.759 0 -7.55526
2282695 1 162.214 193.006 112.758 0 -7.61769
2282937 1 164.78 192.366 112.758 0 -7.56041
2294700 1 176.998 124.127 119.5 0 -7.10675
2323498 1 173.653 127.207 122.916 0 -7.22335
2325283 1 125.946 173.79 122.783 0 -6.25414
2327239 1 240.796 221.636 122.787 0 -6.25424
2428746 1 197.387 242.04 143.164 0 -6.2582
2442424 1 192.958 224.829 146.357 0 -6.25412
2443373 1 155.826 248.426 146.361 0 -7.66858
2443494 1 159.063 251.807 146.411 0 -6.71812
771897 1 162.378 216.653 151.945 0 -6.99246
2472292 1 152.71 251.734 152.733 0 -7.81754
2485134 1 155.288 213.536 156.073 0 -7.80639
2486572 1 152.853 248.4 155.837 0 -7.18759
742255 1 160.865 200.136 157.645 0 -8.08585
756776 1 165.079 203.729 157.431 0 -8.07226
785816 1 160.723 206.909 159.204 0 -7.8514
757136 1 164.529 206.315 157.362 0 -8.10051
2470855 1 160.603 209.711 157.894 0 -8.3446
2485017 1 167.852 210.348 157.676 0 -7.86267
2485614 1 157.629 218.924 159.524 0 -7.81024
2528334 1 160.929 213.532 161.618 0 -7.79301
2528572 1 157.583 217.032 161.467 0 -7.45955
2524975 1 164.231 122.764 168.687 0 -6.25492
2539261 1 183.376 119.574 170.631 0 -6.25498
2625652 1 154.664 119.572 189.766 0 -6.25516
916498 1 169.002 235.97 190.842 0 -7.06244
2644498 1 170.819 235.965 192.668 0 -7.06934
2644497 1 168.999 237.789 192.666 0 -7.06488
454495 1 162.5 202.286 87.154 0 -6.46585
2338019 1 175.229 122.37 121.026 0 -7.42855
595498 1 172.176 125.613 121.214 0 -7.3327
610019 1 176.713 124.235 122.22 0 -7.46475
2340297 1 170.151 192.653 127.48 0 -6.55281
655617 1 170.282 189.386 130.733 0 -6.82332
744293 1 154.39 250.093 151.042 0 -7.97354
744414 1 157.672 253.437 151.047 0 -6.92884
2484655 1 159.635 205.696 153.992 0 -7.81533
2470375 1 158.773 208.212 154.371 0 -7.76747
2470734 1 162.598 211.778 153.998 0 -7.84223
758692 1 151.266 250.168 154.482 0 -7.53575
758693 1 154.352 250.061 154.094 0 -7.94605
758812 1 151.063 253.165 154.42 0 -7.24965
2485018 1 169.827 208.681 157.827 0 -7.29386
2456456 1 166.053 212.019 157.676 0 -7.60666
2470974 1 157.227 215.393 156.108 0 -8.1765
2442173 1 159.158 217.146 155.911 0 -8.17048
770445 1 131.978 181.766 159.472 0 -6.25546
2513813 1 159.322 205.285 161.134 0 -7.54589
2513815 1 162.248 204.847 160.693 0 -7.65689
800696 1 160.908 215.374 159.668 0 -8.26103
757612 1 153.45 218.38 160.962 0 -7.27077
1058702 1 184.982 188.148 223.274 0 -6.25418
