ITEM: TIMESTEP
87289
ITEM: NUMBER OF ATOMS
57
ITEM: BOX BOUNDS pp pp pp
0 360
0 360
0 360
ITEM: ATOMS id type x y z c_myKE c_myPE
2168449 1 143.17 215.247 85.7648 0 -6.25592
2281745 1 196.162 162.263 113.224 0 -6.25319
2310416 1 167.415 162.312 117.705 0 -7.36077
2310536 1 165.565 164.164 117.706 0 -7.36155
2298776 1 165.514 232.439 116.426 0 -6.25548
2324935 1 164.333 161.079 120.789 0 -6.30371
2324937 1 168.652 165.395 120.789 0 -6.30302
2382418 1 173.85 159.071 133.611 0 -6.25393
2399213 1 162.449 221.831 135.489 0 -7.46719
2399215 1 164.315 223.028 136.972 0 -7.43191
728815 1 161.075 222.846 140.028 0 -7.33568
2585810 1 151.567 210.136 175.114 0 -6.83943
2583401 1 119.636 145.083 178.276 0 -6.25758
2586052 1 151.635 213.4 178.369 0 -6.52594
2597563 1 125.967 133.568 181.428 0 -6.25658
2600578 1 173.744 216.5 184.618 0 -7.36606
886858 1 173.826 213.406 187.812 0 -8.23867
872459 1 176.981 213.384 187.968 0 -8.43929
2629259 1 177.015 216.557 188.008 0 -8.31181
915782 1 180.166 216.491 188.007 0 -8.42616
2629380 1 180.279 219.62 187.883 0 -7.88657
2614862 1 183.382 219.748 188.046 0 -7.12603
2629500 1 180.333 219.677 190.955 0 -7.63436
2658165 1 132.329 219.907 196.172 0 -6.67711
2672565 1 132.35 216.519 199.425 0 -7.51693
2672918 1 110.013 228.039 199.354 0 -6.25551
2686479 1 113.055 205.849 202.346 0 -7.25557
2701016 1 164.297 206.95 205.743 0 -6.25207
454486 1 133.944 202.146 87.3713 0 -6.82219
468885 1 130.69 202.028 90.6293 0 -6.5435
627068 1 204.144 195.744 125.627 0 -6.25106
2384695 1 162.561 224.551 135.208 0 -7.10526
2399095 1 159.482 221.142 138.55 0 -7.22328
742011 1 149.937 189.387 147.971 0 -6.25256
2497363 1 122.458 154.307 159.464 0 -6.2563
2527971 1 149.971 205.355 163.946 0 -6.26095
856375 1 160.754 167.059 176.672 0 -6.25468
886738 1 172.378 211.703 183.025 0 -7.34645
883972 1 153.046 137.065 184.815 0 -7.34503
2614857 1 172.215 215.129 186.407 0 -7.59259
2614858 1 175.442 215.026 186.335 0 -8.39353
2615101 1 178.629 218.008 186.284 0 -8.02861
898252 1 153.131 134.101 188.259 0 -7.42241
898371 1 150.059 137.086 188.241 0 -7.33782
898372 1 152.936 136.971 187.987 0 -7.59569
898373 1 156.183 136.91 187.958 0 -7.31659
898492 1 152.914 140.172 187.943 0 -7.33967
2614738 1 175.359 211.68 189.362 0 -7.50831
2643661 1 178.465 215.012 189.684 0 -7.84047
2643885 1 127.701 221.464 197.809 0 -7.21645
958359 1 111.669 200.952 200.955 0 -7.06894
958480 1 114.74 203.924 200.704 0 -7.01381
973365 1 128.735 217.067 202.157 0 -7.26786
959204 1 127.462 221.622 200.901 0 -6.65745
2701000 1 112.747 205.317 205.18 0 -7.39299
2760775 1 162.672 265.958 214.956 0 -6.25186
1029040 1 112.889 163.883 216.88 0 -6.25375
