ITEM: TIMESTEP
90269
ITEM: NUMBER OF ATOMS
49
ITEM: BOX BOUNDS pp pp pp
0 360
0 360
0 360
ITEM: ATOMS id type x y z
697009 1 144.75 144.75 144.75
726291 1 150.75 156.75 150.75
740571 1 150.75 153.75 153.75
755210 1 147.75 159.75 156.75
813413 1 156.75 174.75 168.75
814731 1 150.75 207.75 168.75
828882 1 123.75 201.75 171.75
843644 1 129.75 210.75 174.75
857563 1 126.75 198.75 177.75
858415 1 162.75 219.75 177.75
872327 1 138.75 207.75 180.75
872686 1 135.75 216.75 180.75
872699 1 174.75 216.75 180.75
886979 1 174.75 213.75 183.75
900640 1 117.75 195.75 186.75
901623 1 186.75 219.75 186.75
929936 1 165.75 207.75 192.75
944336 1 165.75 207.75 195.75
987416 1 165.75 204.75 204.75
987418 1 171.75 204.75 204.75
988244 1 129.75 225.75 204.75
988604 1 129.75 234.75 204.75
2483092 1 155.25 158.25 158.25
2497371 1 152.25 155.25 161.25
2512488 1 143.25 173.25 164.25
2512489 1 146.25 173.25 164.25
2512492 1 155.25 173.25 164.25
2526531 1 152.25 164.25 167.25
2526651 1 152.25 167.25 167.25
2542363 1 128.25 200.25 170.25
2542481 1 122.25 203.25 170.25
2556640 1 119.25 197.25 173.25
2571279 1 116.25 203.25 176.25
2571287 1 140.25 203.25 176.25
2585815 1 164.25 206.25 179.25
2586059 1 176.25 212.25 179.25
2600932 1 155.25 224.25 182.25
2614865 1 194.25 212.25 185.25
2628880 1 119.25 203.25 188.25
2642799 1 116.25 191.25 191.25
2657934 1 161.25 209.25 194.25
2672337 1 170.25 209.25 197.25
2686258 1 173.25 197.25 200.25
2686614 1 161.25 206.25 200.25
2686618 1 173.25 206.25 200.25
2701493 1 158.25 218.25 203.25
2772898 1 173.25 203.25 218.25
2773018 1 173.25 206.25 218.25
2844759 1 116.25 200.25 233.25
