ITEM: TIMESTEP
86213
ITEM: NUMBER OF ATOMS
94
ITEM: BOX BOUNDS pp pp pp
0 360
0 360
0 360
ITEM: ATOMS id type x y z
671451 1 150.75 225.75 138.75
684910 1 207.75 201.75 141.75
738652 1 153.75 105.75 153.75
739136 1 165.75 117.75 153.75
758191 1 90.75 234.75 156.75
758310 1 87.75 237.75 156.75
773569 1 144.75 258.75 159.75
783648 1 141.75 150.75 162.75
844016 1 165.75 219.75 174.75
844137 1 168.75 222.75 174.75
858536 1 165.75 222.75 177.75
872199 1 114.75 204.75 180.75
872677 1 108.75 216.75 180.75
884229 1 204.75 144.75 183.75
886361 1 120.75 198.75 183.75
886480 1 117.75 201.75 183.75
886599 1 114.75 204.75 183.75
886719 1 114.75 207.75 183.75
886838 1 111.75 210.75 183.75
886957 1 108.75 213.75 183.75
886958 1 111.75 213.75 183.75
887076 1 105.75 216.75 183.75
887077 1 108.75 216.75 183.75
887197 1 108.75 219.75 183.75
900760 1 117.75 198.75 186.75
900880 1 117.75 201.75 186.75
900881 1 120.75 201.75 186.75
901000 1 117.75 204.75 186.75
901120 1 117.75 207.75 186.75
901239 1 114.75 210.75 186.75
901358 1 111.75 213.75 186.75
901359 1 114.75 213.75 186.75
915520 1 117.75 207.75 189.75
915640 1 117.75 210.75 189.75
915759 1 114.75 213.75 189.75
915879 1 114.75 216.75 189.75
928847 1 138.75 180.75 192.75
929205 1 132.75 189.75 192.75
929324 1 129.75 192.75 192.75
929443 1 126.75 195.75 192.75
929444 1 129.75 195.75 192.75
943724 1 129.75 192.75 195.75
958243 1 126.75 195.75 198.75
1131889 1 144.75 216.75 234.75
1145222 1 183.75 189.75 237.75
1145343 1 186.75 192.75 237.75
2452251 1 152.25 107.25 152.25
2452370 1 149.25 110.25 152.25
2466771 1 152.25 110.25 155.25
2467015 1 164.25 116.25 155.25
2487169 1 146.25 260.25 158.25
2512722 1 125.25 179.25 164.25
2525952 1 215.25 149.25 167.25
2554495 1 164.25 143.25 173.25
2554616 1 167.25 146.25 173.25
2568896 1 167.25 143.25 176.25
2583297 1 170.25 143.25 179.25
2585679 1 116.25 203.25 179.25
2599959 1 116.25 200.25 182.25
2600079 1 116.25 203.25 182.25
2600198 1 113.25 206.25 182.25
2600318 1 113.25 209.25 182.25
2600437 1 110.25 212.25 182.25
2614479 1 116.25 203.25 185.25
2614599 1 116.25 206.25 185.25
2614718 1 113.25 209.25 185.25
2614719 1 116.25 209.25 185.25
2614838 1 113.25 212.25 185.25
2614957 1 110.25 215.25 185.25
2628404 1 131.25 191.25 188.25
2628525 1 134.25 194.25 188.25
2628880 1 119.25 203.25 188.25
2628881 1 122.25 203.25 188.25
2629000 1 119.25 206.25 188.25
2629119 1 116.25 209.25 188.25
2629239 1 116.25 212.25 188.25
2629358 1 113.25 215.25 188.25
2642446 1 137.25 182.25 191.25
2642804 1 131.25 191.25 191.25
2642805 1 134.25 191.25 191.25
2642924 1 131.25 194.25 191.25
2643280 1 119.25 203.25 191.25
2643639 1 116.25 212.25 191.25
2643759 1 116.25 215.25 191.25
2657084 1 131.25 188.25 194.25
2657204 1 131.25 191.25 194.25
2657323 1 128.25 194.25 194.25
2660564 1 131.25 275.25 194.25
2660685 1 134.25 278.25 194.25
2671604 1 131.25 191.25 197.25
2675084 1 131.25 278.25 197.25
2686122 1 125.25 194.25 200.25
2701979 1 176.25 230.25 203.25
2858701 1 182.25 188.25 236.25
