ITEM: TIMESTEP
87000
ITEM: NUMBER OF ATOMS
73
ITEM: BOX BOUNDS pp pp pp
0 360
0 360
0 360
ITEM: ATOMS id type x y z c_myKE c_myPE
638222 1 183.158 109.814 132.209 0.0322177 -6.6555
2395372 1 153.101 120.822 140.003 0.0958317 -8.28017
667493 1 155.561 124.095 138.699 0.161677 -6.48008
2409773 1 155.068 120.723 141.659 0.305041 -7.41871
2409772 1 152.867 122.655 141.888 0.268061 -6.90954
2453926 1 133.754 148.277 149.53 0.394603 -6.00632
2455242 1 122.645 183.294 152.979 0.464816 -6.7455
2539505 1 195.925 126.204 168.721 0.189971 -6.40274
827452 1 154.668 167.333 167.265 0.0249471 -6.96021
2569376 1 165.557 151.627 178.153 0.0338228 -6.94843
2569374 1 162.267 154.606 178.466 0.0578714 -6.58784
2598294 1 159.253 154.667 181.641 0.195947 -7.36565
870294 1 159.274 154.667 184.611 0.115078 -6.94389
870425 1 193.957 160.952 183.094 0.0996091 -6.03749
2613563 1 253.604 180.179 184.643 0.154118 -7.07415
2668886 1 262.782 119.679 200.715 0.0593552 -6.90712
2683525 1 261.293 123.936 202.349 0.15214 -7.34449
2712206 1 259.565 122.736 206.977 0.0886823 -7.91555
2712448 1 264.772 126.289 205.687 0.0897814 -7.58443
2712917 1 234.573 136.938 208.851 0.107296 -6.43641
2741480 1 244.475 135.485 211.868 0.389313 -7.31485
1027998 1 235.222 138.754 213.474 0.0802425 -6.75947
1028121 1 242.358 138.949 213.361 0.25638 -7.81281
1028473 1 212.22 151.557 213.514 0.261718 -6.00845
1028595 1 229.142 152.813 213.121 0.0360467 -7.32881
2728985 1 194.245 183.331 213.486 0.146859 -5.93229
2768973 1 285.388 98.6137 219.479 0.218911 -6.24989
2787295 1 164.122 201.113 225.912 0.10474 -7.50696
1101073 1 218.328 161.197 229.151 0.232098 -6.87599
2801577 1 168.476 200.703 229.132 0.18829 -6.53807
2827848 1 139.938 135.457 232.553 0.0594581 -5.94326
2828831 1 215.167 161.399 232.494 0.375562 -6.36311
2841049 1 143.074 101.757 235.493 0.184122 -6.47656
2842249 1 143.294 135.647 235.786 0.264195 -6.46158
2829206 1 261.319 168.855 234.227 0.0879821 -5.29522
2885567 1 138.624 136.863 247.405 0.0532475 -5.59217
699775 1 162.847 216.86 143.023 0.0260739 -5.8497
741522 1 121.341 178.688 151.138 0.0609142 -6.74058
741542 1 184.94 178.498 151.015 0.35752 -6.98269
741663 1 188.362 181.441 150.975 0.213232 -6.24196
841245 1 130.885 150.11 175.514 0.0619816 -6.61545
869705 1 192.568 138.343 179.695 0.233014 -6.73485
869826 1 195.445 141.844 179.788 0.433852 -6.74354
2569495 1 166.116 154.509 178.552 0.631604 -6.70015
882169 1 143.559 87.3345 182.917 0.0132115 -6.09622
2583654 1 162.522 151.372 181.748 0.0534943 -7.31228
884933 1 161.124 156.461 183.236 0.176403 -6.93873
940776 1 291.508 114.58 198.328 0.144162 -6.34067
955527 1 262.542 122.469 197.581 0.0166769 -7.48671
969926 1 261.652 124.473 199.744 0.166755 -8.04187
2683407 1 262.854 122.302 200.864 0.320605 -8.02607
984447 1 263.553 124.686 201.795 0.0707265 -7.71452
970249 1 140.979 132 200.926 0.391111 -6.40413
971950 1 208.475 178.336 201.796 0.215488 -6.40092
2698048 1 262.958 128.108 205.458 0.117995 -7.98741
984799 1 240.589 135.334 208.215 0.180671 -7.34775
2727795 1 224.339 151.446 208.572 0.0796321 -7.31212
2727915 1 227.715 154.486 208.33 0.262785 -7.64156
999079 1 240.668 131.545 211.799 0.0987477 -7.76411
999080 1 242.477 133.677 211.851 0.147361 -7.88813
2727918 1 230.786 154.571 211.696 0.0319556 -6.41582
1013840 1 240.548 140.898 213.532 0.3168 -7.85614
2770278 1 240.67 137.389 217.13 0.0522337 -7.55224
1056177 1 168.977 119.369 221.556 0.0323725 -6.35388
1070463 1 185.953 117.959 224.678 0.0748182 -6.26679
2787175 1 164.205 199.371 223.916 0.264515 -8.06395
1070620 1 306.294 121.221 226.127 0.37291 -6.1124
1073455 1 162.535 195.721 226.021 0.0842687 -7.76908
2787054 1 160.724 197.662 226.146 0.118068 -7.28307
1102044 1 253.127 189.591 230.855 0.056271 -6.02873
1087856 1 164.014 197.654 229.369 0.21514 -7.38564
1087975 1 160.955 201.163 229.363 0.16836 -7.46151
1172236 1 227.591 143.265 247.176 0.0299587 -6.2054
