ITEM: TIMESTEP
94252
ITEM: NUMBER OF ATOMS
48
ITEM: BOX BOUNDS pp pp pp
0 360
0 360
0 360
ITEM: ATOMS id type x y z
725929 1 144.75 147.75 150.75
811855 1 162.75 135.75 168.75
856254 1 159.75 165.75 177.75
870540 1 177.75 162.75 180.75
899693 1 156.75 171.75 186.75
899813 1 156.75 174.75 186.75
899822 1 183.75 174.75 186.75
928498 1 171.75 171.75 192.75
1002670 1 207.75 225.75 207.75
1101783 1 186.75 183.75 228.75
1102624 1 189.75 204.75 228.75
1132627 1 198.75 234.75 234.75
1232223 1 186.75 204.75 255.75
1245437 1 228.75 174.75 258.75
1245910 1 207.75 186.75 258.75
1260181 1 180.75 183.75 261.75
1273400 1 237.75 153.75 264.75
1275066 1 195.75 195.75 264.75
1275431 1 210.75 204.75 264.75
1290071 1 210.75 210.75 267.75
1290182 1 183.75 213.75 267.75
1303620 1 177.75 189.75 270.75
1345266 1 195.75 150.75 279.75
1360506 1 195.75 171.75 282.75
1388833 1 216.75 159.75 288.75
1389789 1 204.75 183.75 288.75
1461318 1 231.75 171.75 303.75
2439409 1 146.25 146.25 149.25
2497135 1 164.25 149.25 161.25
2497252 1 155.25 152.25 161.25
2541294 1 161.25 173.25 170.25
2584135 1 164.25 164.25 179.25
2627221 1 182.25 161.25 188.25
2656257 1 170.25 167.25 194.25
2700058 1 173.25 182.25 203.25
2759711 1 212.25 233.25 215.25
2802668 1 203.25 227.25 224.25
2844185 1 194.25 185.25 233.25
2903588 1 203.25 230.25 245.25
2931540 1 179.25 209.25 251.25
2946427 1 200.25 221.25 254.25
2959866 1 197.25 197.25 257.25
2974266 1 197.25 197.25 260.25
2975226 1 197.25 221.25 260.25
3001157 1 230.25 149.25 266.25
3030901 1 182.25 173.25 272.25
3061025 1 194.25 206.25 278.25
3075314 1 221.25 203.25 281.25
