ITEM: TIMESTEP
87000
ITEM: NUMBER OF ATOMS
87
ITEM: BOX BOUNDS pp pp pp
0 360
0 360
0 360
ITEM: ATOMS id type x y z
638711 1 210.75 126.75 132.75
653591 1 210.75 138.75 135.75
682271 1 210.75 135.75 141.75
697009 1 144.75 144.75 144.75
725944 1 189.75 147.75 150.75
740462 1 183.75 150.75 153.75
825530 1 147.75 117.75 171.75
825664 1 189.75 120.75 171.75
840075 1 222.75 120.75 174.75
840296 1 165.75 126.75 174.75
885173 1 156.75 168.75 183.75
971217 1 168.75 159.75 201.75
1014420 1 177.75 159.75 210.75
1028457 1 168.75 150.75 213.75
1029063 1 186.75 165.75 213.75
1042381 1 180.75 138.75 216.75
1056537 1 168.75 132.75 219.75
1057024 1 189.75 144.75 219.75
1057028 1 201.75 144.75 219.75
1057136 1 165.75 147.75 219.75
1057148 1 201.75 147.75 219.75
1057260 1 177.75 150.75 219.75
1057504 1 189.75 156.75 219.75
1086061 1 180.75 150.75 225.75
1086062 1 183.75 150.75 225.75
1086181 1 180.75 153.75 225.75
1086422 1 183.75 159.75 225.75
1086423 1 186.75 159.75 225.75
1086784 1 189.75 168.75 225.75
1099980 1 177.75 138.75 228.75
1100222 1 183.75 144.75 228.75
1100461 1 180.75 150.75 228.75
1114740 1 177.75 147.75 231.75
1114861 1 180.75 150.75 231.75
1115224 1 189.75 159.75 231.75
1129143 1 186.75 147.75 234.75
1129267 1 198.75 150.75 234.75
1186740 1 177.75 147.75 246.75
1215184 1 189.75 138.75 252.75
1215531 1 150.75 147.75 252.75
2295186 1 197.25 140.25 119.25
2395871 1 212.25 137.25 140.25
2396581 1 182.25 155.25 140.25
2425252 1 155.25 152.25 146.25
2453826 1 197.25 146.25 152.25
2467990 1 209.25 140.25 155.25
2480945 1 194.25 104.25 158.25
2483343 1 188.25 164.25 158.25
2525096 1 167.25 128.25 167.25
2538543 1 188.25 104.25 170.25
2539271 1 212.25 122.25 170.25
2582583 1 188.25 125.25 179.25
2597114 1 221.25 128.25 182.25
2726708 1 203.25 128.25 209.25
2741949 1 206.25 149.25 212.25
2755867 1 200.25 137.25 215.25
2756349 1 206.25 149.25 215.25
2756581 1 182.25 155.25 215.25
2756583 1 188.25 155.25 215.25
2770622 1 185.25 146.25 218.25
2770740 1 179.25 149.25 218.25
2770741 1 182.25 149.25 218.25
2770978 1 173.25 155.25 218.25
2770981 1 182.25 155.25 218.25
2785145 1 194.25 149.25 221.25
2785385 1 194.25 155.25 221.25
2785498 1 173.25 158.25 221.25
2785502 1 185.25 158.25 221.25
2785503 1 188.25 158.25 221.25
2799177 1 170.25 140.25 224.25
2799297 1 170.25 143.25 224.25
2800502 1 185.25 173.25 224.25
2813820 1 179.25 146.25 227.25
2813826 1 197.25 146.25 227.25
2814179 1 176.25 155.25 227.25
2828218 1 173.25 146.25 230.25
2828461 1 182.25 152.25 230.25
2828694 1 161.25 158.25 230.25
2828702 1 185.25 158.25 230.25
2871899 1 176.25 158.25 239.25
2886544 1 191.25 164.25 242.25
2900094 1 161.25 143.25 245.25
2915096 1 167.25 158.25 248.25
3015904 1 191.25 158.25 269.25
3073863 1 188.25 167.25 281.25
3087903 1 188.25 158.25 284.25
3102303 1 188.25 158.25 287.25
