ITEM: TIMESTEP
88371
ITEM: NUMBER OF ATOMS
86
ITEM: BOX BOUNDS pp pp pp
0 360
0 360
0 360
ITEM: ATOMS id type x y z
697009 1 144.75 144.75 144.75
740573 1 156.75 153.75 153.75
780785 1 192.75 78.75 162.75
812940 1 177.75 162.75 168.75
813171 1 150.75 168.75 168.75
813532 1 153.75 177.75 168.75
828180 1 177.75 183.75 171.75
841733 1 156.75 162.75 174.75
842702 1 183.75 186.75 174.75
854465 1 192.75 120.75 177.75
856261 1 180.75 165.75 177.75
856857 1 168.75 180.75 177.75
870296 1 165.75 156.75 180.75
870536 1 165.75 162.75 180.75
870537 1 168.75 162.75 180.75
870539 1 174.75 162.75 180.75
870655 1 162.75 165.75 180.75
870656 1 165.75 165.75 180.75
870657 1 168.75 165.75 180.75
871017 1 168.75 174.75 180.75
871018 1 171.75 174.75 180.75
871138 1 171.75 177.75 180.75
871375 1 162.75 183.75 180.75
871621 1 180.75 189.75 180.75
883975 1 162.75 138.75 183.75
884580 1 177.75 153.75 183.75
884691 1 150.75 156.75 183.75
884939 1 174.75 162.75 183.75
885062 1 183.75 165.75 183.75
886018 1 171.75 189.75 183.75
899095 1 162.75 156.75 186.75
899456 1 165.75 165.75 186.75
899817 1 168.75 174.75 186.75
900541 1 180.75 192.75 186.75
912895 1 162.75 141.75 189.75
913020 1 177.75 144.75 189.75
913257 1 168.75 150.75 189.75
913378 1 171.75 153.75 189.75
927654 1 159.75 150.75 192.75
927655 1 162.75 150.75 192.75
929458 1 171.75 195.75 192.75
941705 1 192.75 141.75 195.75
953935 1 162.75 87.75 198.75
971583 1 186.75 168.75 201.75
2526769 1 146.25 170.25 167.25
2555818 1 173.25 176.25 173.25
2569387 1 200.25 155.25 176.25
2569618 1 173.25 161.25 176.25
2583901 1 182.25 158.25 179.25
2584020 1 179.25 161.25 179.25
2584135 1 164.25 164.25 179.25
2584136 1 167.25 164.25 179.25
2584137 1 170.25 164.25 179.25
2584735 1 164.25 179.25 179.25
2584859 1 176.25 182.25 179.25
2598175 1 164.25 155.25 182.25
2598536 1 167.25 164.25 182.25
2598655 1 164.25 167.25 182.25
2598775 1 164.25 170.25 182.25
2598897 1 170.25 173.25 182.25
2598900 1 179.25 173.25 182.25
2611483 1 128.25 128.25 185.25
2612097 1 170.25 143.25 185.25
2612098 1 173.25 143.25 185.25
2612330 1 149.25 149.25 185.25
2612452 1 155.25 152.25 185.25
2612457 1 170.25 152.25 185.25
2612695 1 164.25 158.25 185.25
2613057 1 170.25 167.25 185.25
2613539 1 176.25 179.25 185.25
2622899 1 176.25 53.25 188.25
2623019 1 176.25 56.25 188.25
2626136 1 167.25 134.25 188.25
2626254 1 161.25 137.25 188.25
2626854 1 161.25 152.25 188.25
2626855 1 164.25 152.25 188.25
2626979 1 176.25 155.25 188.25
2640181 1 182.25 125.25 191.25
2640301 1 182.25 128.25 191.25
2640896 1 167.25 143.25 191.25
2641372 1 155.25 155.25 191.25
2641374 1 161.25 155.25 191.25
2641499 1 176.25 158.25 191.25
2655300 1 179.25 143.25 194.25
2655777 1 170.25 155.25 194.25
2684461 1 182.25 152.25 200.25
