ITEM: TIMESTEP
89586
ITEM: NUMBER OF ATOMS
188
ITEM: BOX BOUNDS pp pp pp
0 360
0 360
0 360
ITEM: ATOMS id type x y z
351640 1 117.75 150.75 72.75
366160 1 117.75 153.75 75.75
367246 1 135.75 180.75 75.75
510879 1 114.75 171.75 105.75
510880 1 117.75 171.75 105.75
511000 1 117.75 174.75 105.75
511001 1 120.75 174.75 105.75
525159 1 114.75 168.75 108.75
525280 1 117.75 171.75 108.75
525401 1 120.75 174.75 108.75
525402 1 123.75 174.75 108.75
539559 1 114.75 168.75 111.75
539560 1 117.75 168.75 111.75
539681 1 120.75 171.75 111.75
539802 1 123.75 174.75 111.75
539803 1 126.75 174.75 111.75
539923 1 126.75 177.75 111.75
554081 1 120.75 171.75 114.75
554082 1 123.75 171.75 114.75
554203 1 126.75 174.75 114.75
568362 1 123.75 168.75 117.75
568482 1 123.75 171.75 117.75
568483 1 126.75 171.75 117.75
568604 1 129.75 174.75 117.75
568725 1 132.75 177.75 117.75
582762 1 123.75 168.75 120.75
582883 1 126.75 171.75 120.75
583004 1 129.75 174.75 120.75
639063 1 186.75 135.75 132.75
639184 1 189.75 138.75 132.75
639644 1 129.75 150.75 132.75
653464 1 189.75 135.75 135.75
655600 1 117.75 189.75 135.75
670499 1 174.75 201.75 138.75
725453 1 156.75 135.75 150.75
785581 1 180.75 198.75 162.75
785700 1 177.75 201.75 162.75
799981 1 180.75 198.75 165.75
799982 1 183.75 198.75 165.75
799983 1 186.75 198.75 165.75
800102 1 183.75 201.75 165.75
814261 1 180.75 195.75 168.75
814262 1 183.75 195.75 168.75
814383 1 186.75 198.75 168.75
814384 1 189.75 198.75 168.75
828541 1 180.75 192.75 171.75
828662 1 183.75 195.75 171.75
828663 1 186.75 195.75 171.75
828783 1 186.75 198.75 171.75
842941 1 180.75 192.75 174.75
842942 1 183.75 192.75 174.75
843063 1 186.75 195.75 174.75
843064 1 189.75 195.75 174.75
853487 1 138.75 96.75 177.75
857343 1 186.75 192.75 177.75
857464 1 189.75 195.75 177.75
857465 1 192.75 195.75 177.75
857585 1 192.75 198.75 177.75
869697 1 168.75 141.75 180.75
869935 1 162.75 147.75 180.75
870529 1 144.75 162.75 180.75
871744 1 189.75 192.75 180.75
884096 1 165.75 141.75 183.75
884097 1 168.75 141.75 183.75
884215 1 162.75 144.75 183.75
884216 1 165.75 144.75 183.75
884334 1 159.75 147.75 183.75
884451 1 150.75 150.75 183.75
898377 1 168.75 138.75 186.75
898495 1 162.75 141.75 186.75
898496 1 165.75 141.75 186.75
898614 1 159.75 144.75 186.75
898732 1 153.75 147.75 186.75
898733 1 156.75 147.75 186.75
898850 1 147.75 150.75 186.75
898851 1 150.75 150.75 186.75
898852 1 153.75 150.75 186.75
898970 1 147.75 153.75 186.75
912774 1 159.75 138.75 189.75
912775 1 162.75 138.75 189.75
912893 1 156.75 141.75 189.75
912894 1 159.75 141.75 189.75
913012 1 153.75 144.75 189.75
913013 1 156.75 144.75 189.75
913131 1 150.75 147.75 189.75
914480 1 237.75 180.75 189.75
927054 1 159.75 135.75 192.75
927055 1 162.75 135.75 192.75
927172 1 153.75 138.75 192.75
927173 1 156.75 138.75 192.75
927174 1 159.75 138.75 192.75
927291 1 150.75 141.75 192.75
927292 1 153.75 141.75 192.75
941573 1 156.75 138.75 195.75
2195447 1 140.25 167.25 98.25
2224478 1 113.25 173.25 104.25
2224479 1 116.25 173.25 104.25
2238758 1 113.25 170.25 107.25
2238759 1 116.25 170.25 107.25
2238880 1 119.25 173.25 107.25
2239001 1 122.25 176.25 107.25
2239983 1 188.25 200.25 107.25
2253038 1 113.25 167.25 110.25
2253159 1 116.25 170.25 110.25
2253160 1 119.25 170.25 110.25
2253280 1 119.25 173.25 110.25
2253281 1 122.25 173.25 110.25
2253402 1 125.25 176.25 110.25
2267439 1 116.25 167.25 113.25
2267560 1 119.25 170.25 113.25
2267681 1 122.25 173.25 113.25
2267682 1 125.25 173.25 113.25
2267803 1 128.25 176.25 113.25
2267804 1 131.25 176.25 113.25
2267923 1 128.25 179.25 113.25
2281961 1 122.25 170.25 116.25
2282082 1 125.25 173.25 116.25
2282083 1 128.25 173.25 116.25
2282203 1 128.25 176.25 116.25
2282204 1 131.25 176.25 116.25
2282324 1 131.25 179.25 116.25
2296362 1 125.25 170.25 119.25
2296483 1 128.25 173.25 119.25
2367062 1 185.25 137.25 134.25
2381342 1 185.25 134.25 137.25
2381463 1 188.25 137.25 137.25
2398000 1 119.25 191.25 140.25
2513581 1 182.25 200.25 164.25
2527861 1 182.25 197.25 167.25
2527862 1 185.25 197.25 167.25
2527983 1 188.25 200.25 167.25
2527984 1 191.25 200.25 167.25
2542140 1 179.25 194.25 170.25
2542141 1 182.25 194.25 170.25
2542262 1 185.25 197.25 170.25
2556420 1 179.25 191.25 173.25
2556541 1 182.25 194.25 173.25
2556542 1 185.25 194.25 173.25
2556663 1 188.25 197.25 173.25
2556666 1 197.25 197.25 173.25
2570821 1 182.25 191.25 176.25
2570942 1 185.25 194.25 176.25
2570943 1 188.25 194.25 176.25
2571064 1 191.25 197.25 176.25
2584129 1 146.25 164.25 179.25
2585343 1 188.25 194.25 179.25
2585344 1 191.25 194.25 179.25
2585465 1 194.25 197.25 179.25
2597696 1 167.25 143.25 182.25
2597814 1 161.25 146.25 182.25
2597815 1 164.25 146.25 182.25
2597932 1 155.25 149.25 182.25
2598051 1 152.25 152.25 182.25
2611976 1 167.25 140.25 185.25
2612094 1 161.25 143.25 185.25
2612095 1 164.25 143.25 185.25
2612213 1 158.25 146.25 185.25
2612214 1 161.25 146.25 185.25
2612332 1 155.25 149.25 185.25
2612333 1 158.25 149.25 185.25
2612450 1 149.25 152.25 185.25
2612452 1 155.25 152.25 185.25
2626255 1 164.25 137.25 188.25
2626374 1 161.25 140.25 188.25
2626375 1 164.25 140.25 188.25
2626376 1 167.25 140.25 188.25
2626493 1 158.25 143.25 188.25
2626494 1 161.25 143.25 188.25
2626611 1 152.25 146.25 188.25
2626612 1 155.25 146.25 188.25
2626613 1 158.25 146.25 188.25
2626730 1 149.25 149.25 188.25
2626731 1 152.25 149.25 188.25
2627960 1 239.25 179.25 188.25
2628664 1 191.25 197.25 188.25
2640535 1 164.25 134.25 191.25
2640654 1 161.25 137.25 191.25
2640655 1 164.25 137.25 191.25
2640656 1 167.25 137.25 191.25
2640772 1 155.25 140.25 191.25
2640773 1 158.25 140.25 191.25
2640890 1 149.25 143.25 191.25
2640891 1 152.25 143.25 191.25
2640892 1 155.25 143.25 191.25
2641011 1 152.25 146.25 191.25
2655053 1 158.25 137.25 194.25
2655171 1 152.25 140.25 194.25
2673299 1 176.25 233.25 197.25
