ITEM: TIMESTEP
90000
ITEM: NUMBER OF ATOMS
85
ITEM: BOX BOUNDS pp pp pp
0 360
0 360
0 360
ITEM: ATOMS id type x y z c_myKE c_myPE
2210696 1 164.915 189.477 97.3542 0.123483 -6.25412
2268418 1 172.231 190.808 108.037 0.105129 -6.44903
2367656 1 165.589 151.362 130.612 0.0426518 -6.642
641445 1 127.088 193.9 129.207 0.0754703 -6.99434
627164 1 124.251 197.556 129.048 0.0724756 -6.76044
2385676 1 229.115 247.045 133.866 0.123089 -6.6653
655005 1 135.587 173.895 135.38 0.0498182 -6.43903
2383604 1 125.96 195.934 136.832 0.429547 -7.26313
670485 1 130.463 200.591 135.754 0.107115 -6.9051
2399835 1 226.062 240.427 136.642 0.0835704 -7.30559
2399956 1 229.021 243.992 136.79 0.0084787 -7.41385
683809 1 138.68 173.868 138.902 0.296355 -7.80129
684523 1 122.597 195.93 139.704 0.145953 -6.97373
2414115 1 226.108 237.554 140.016 0.267103 -7.16907
2426089 1 141.851 170.58 142.034 0.161203 -7.82115
712609 1 138.494 173.77 141.741 0.398681 -8.11368
2440129 1 142.096 173.409 144.933 0.0993768 -7.72528
2429087 1 136.79 251.615 145.087 0.123821 -6.4723
2501466 1 199.272 264.523 159.391 0.024476 -5.77717
801313 1 218.332 235.864 162.296 0.298433 -7.21539
2528101 1 183.306 203.583 165.283 0.0717998 -5.91064
2615588 1 205.645 232.674 186.432 0.29356 -6.5708
2630233 1 221.888 238.929 187.948 0.269419 -6.57347
2642928 1 140.298 196.362 192.538 0.213892 -5.37648
2684686 1 135.172 157.766 200.658 0.234007 -6.85394
2700051 1 152.802 181.332 202.74 0.158098 -7.40599
2685771 1 148.203 186.585 204.184 0.0854533 -7.9428
986812 1 149.717 191.084 205.606 0.293923 -7.8029
2714930 1 146.501 194.469 208.848 0.224857 -6.76437
2771814 1 159.177 178.032 219.602 0.330471 -7.04628
2786084 1 126.835 171.925 223.126 0.0737946 -6.96238
440453 1 156.573 212.111 85.964 0.26787 -5.64311
597053 1 155.927 165.808 121.004 0.086272 -5.87499
656685 1 131.089 217.866 132.324 0.13868 -6.1923
642296 1 166.092 219.509 131.023 0.301986 -6.34706
654177 1 169.152 151.244 133.844 0.114462 -7.75242
654295 1 165.979 154.31 133.707 0.233235 -6.63207
655603 1 122.683 192.424 133.561 0.045225 -6.82808
655843 1 125.534 195.969 133.996 0.0568675 -7.47237
698207 1 140.265 172.199 140.468 0.0283034 -7.74475
655844 1 124.177 197.593 141.511 0.141755 -6.68933
684885 1 129.077 202.259 140.197 0.192504 -6.74203
702410 1 147.013 286.953 141.669 0.233417 -7.01232
726768 1 140.385 165.896 143.532 0.152293 -6.90005
712728 1 140.08 168.95 143.416 0.0554383 -7.79103
2411689 1 143.652 168.644 143.518 0.198527 -7.26589
699164 1 125.806 202.398 143.463 0.16212 -6.74736
701087 1 135.491 250.076 143.428 0.0201897 -6.84944
701207 1 135.056 252.996 143.557 0.190576 -6.7224
2430050 1 147.181 283.745 144.644 0.197313 -7.04777
2454768 1 140.334 171.916 146.615 0.26194 -6.61718
731210 1 146.822 287.094 147.985 0.122077 -7.23195
731331 1 149.776 290.18 148.14 0.169737 -7.20902
2459689 1 144.647 300.748 153.348 0.310675 -6.797
758576 1 164.192 247.025 157.159 0.164243 -7.58016
772631 1 213.928 240.396 160.099 0.149045 -6.86911
772855 1 162.718 243.82 159.184 0.0753834 -7.60742
2515132 1 160.335 247.122 160.744 0.0669519 -7.47529
2486575 1 164.248 249.263 159.115 0.0857405 -7.8379
801311 1 213.959 235.812 164.088 0.0487169 -6.70556
2515255 1 165.905 243.742 162.644 0.433809 -8.05386
2529432 1 220.002 238.768 165.911 0.15242 -6.32951
817154 1 223.402 274.424 167.052 0.148521 -6.64692
2538765 1 128.898 104.896 168.983 0.218979 -6.9337
872925 1 130.733 226.417 179.935 0.218151 -6.05099
889169 1 270.904 274.506 185.092 0.232669 -6.83898
903570 1 274.497 274.048 188.046 0.0545244 -6.86495
970965 1 131.039 152.763 201.797 0.0361127 -6.73559
2685650 1 149.965 182.117 202.406 0.101862 -7.73015
2700049 1 146.624 184.817 202.43 0.171255 -7.14271
2713129 1 141.831 149.864 205.515 0.29281 -7.3909
985368 1 138.203 152.955 205.526 0.00887647 -7.63873
2699930 1 147.207 181.941 205.383 0.127549 -7.53297
972051 1 149.925 181.751 205.695 0.106401 -7.48884
2700050 1 149.958 185.171 205.795 0.714896 -8.04607
2714571 1 153.23 184.674 205.651 0.227578 -7.69252
986691 1 150.041 188.476 205.637 0.408204 -8.00126
972651 1 149.829 195.074 203.703 0.196052 -5.85794
975303 1 188.161 267.751 204.048 0.383059 -6.10044
2713369 1 141.653 152.914 208.703 0.0595195 -6.60814
986931 1 147.66 192.705 207.179 0.294042 -6.83734
2730769 1 141.713 232.899 211.737 0.196412 -6.02028
1072604 1 125.508 173.625 224.8 0.385587 -6.14828
1087610 1 147.986 189.329 227.519 0.148809 -6.91706
2815489 1 146.705 191.274 229.534 0.326462 -7.32819
