ITEM: TIMESTEP
93000
ITEM: NUMBER OF ATOMS
76
ITEM: BOX BOUNDS pp pp pp
0 360
0 360
0 360
ITEM: ATOMS id type x y z
855794 1 219.75 153.75 177.75
856026 1 195.75 159.75 177.75
942191 1 210.75 153.75 195.75
1014172 1 153.75 153.75 210.75
1014667 1 198.75 165.75 210.75
1028097 1 168.75 141.75 213.75
1042270 1 207.75 135.75 216.75
1042729 1 144.75 147.75 216.75
1042983 1 186.75 153.75 216.75
1057026 1 195.75 144.75 219.75
1071057 1 168.75 135.75 222.75
1085946 1 195.75 147.75 225.75
1100342 1 183.75 147.75 228.75
1100346 1 195.75 147.75 228.75
1100452 1 153.75 150.75 228.75
1100584 1 189.75 153.75 228.75
1100704 1 189.75 156.75 228.75
1114856 1 165.75 150.75 231.75
1128784 1 189.75 138.75 234.75
1128900 1 177.75 141.75 234.75
1129026 1 195.75 144.75 234.75
1129136 1 165.75 147.75 234.75
1129142 1 183.75 147.75 234.75
1129386 1 195.75 153.75 234.75
1144029 1 204.75 159.75 237.75
1158424 1 189.75 159.75 240.75
1172339 1 174.75 147.75 243.75
1215663 1 186.75 150.75 252.75
1229479 1 234.75 135.75 255.75
1258971 1 150.75 153.75 261.75
1271717 1 228.75 111.75 264.75
1272680 1 237.75 135.75 264.75
1286359 1 234.75 117.75 267.75
1357886 1 255.75 105.75 282.75
2424770 1 149.25 140.25 146.25
2511176 1 167.25 140.25 164.25
2554864 1 191.25 152.25 173.25
2555465 1 194.25 167.25 173.25
2570224 1 191.25 176.25 176.25
2570344 1 191.25 179.25 176.25
2583794 1 221.25 155.25 179.25
2583906 1 197.25 158.25 179.25
2584024 1 191.25 161.25 179.25
2770864 1 191.25 152.25 218.25
2785262 1 185.25 152.25 221.25
2799178 1 173.25 140.25 224.25
2814063 1 188.25 152.25 227.25
2828222 1 185.25 146.25 230.25
2828342 1 185.25 149.25 230.25
2828453 1 158.25 152.25 230.25
2828582 1 185.25 155.25 230.25
2828942 1 185.25 164.25 230.25
2842615 1 164.25 146.25 233.25
2842624 1 191.25 146.25 233.25
2842625 1 194.25 146.25 233.25
2842982 1 185.25 155.25 233.25
2843588 1 203.25 170.25 233.25
2856895 1 164.25 143.25 236.25
2857258 1 173.25 152.25 236.25
2857259 1 176.25 152.25 236.25
2857260 1 179.25 152.25 236.25
2870698 1 173.25 128.25 239.25
2871789 1 206.25 155.25 239.25
2885817 1 170.25 146.25 242.25
2885942 1 185.25 149.25 242.25
2885945 1 194.25 149.25 242.25
2886181 1 182.25 155.25 242.25
2886306 1 197.25 158.25 242.25
2886534 1 161.25 164.25 242.25
2900955 1 224.25 164.25 245.25
2915480 1 239.25 167.25 248.25
2944141 1 182.25 164.25 254.25
2985680 1 239.25 122.25 263.25
3000682 1 245.25 137.25 266.25
3001250 1 149.25 152.25 266.25
3044570 1 149.25 155.25 275.25
