ITEM: TIMESTEP
90289
ITEM: NUMBER OF ATOMS
77
ITEM: BOX BOUNDS pp pp pp
0 360
0 360
0 360
ITEM: ATOMS id type x y z c_myKE c_myPE
2354686 1 133.677 189.642 127.109 0 -6.54428
2354805 1 130.417 192.896 127.22 0 -6.82579
2370658 1 173.921 229.255 132.433 0 -7.58054
657300 1 177.108 232.631 132.211 0 -6.87962
657178 1 173.781 229.192 135.536 0 -8.27932
2385178 1 173.809 232.381 135.719 0 -7.96729
671345 1 194.301 225.993 138.784 0 -6.26774
685980 1 175.274 231.153 139.766 0 -7.33584
2413977 1 170.511 235.743 138.81 0 -6.66231
2425486 1 132.412 154.687 145.182 0 -6.28271
712128 1 136.727 159.002 145.182 0 -6.28479
2425748 1 203.665 162.329 145.045 0 -6.54687
2441102 1 189.791 186.504 145.13 0 -6.25538
2454167 1 136.726 154.685 149.498 0 -6.28383
2439886 1 133.642 157.772 148.268 0 -7.37456
2440028 1 203.788 159.074 148.301 0 -6.82245
2455726 1 133.344 195.969 149.647 0 -6.87697
2467503 1 189.767 123.98 152.744 0 -6.25339
2470126 1 133.633 196.179 152.672 0 -7.04461
2572975 1 167.384 251.596 173.913 0 -7.34911
2587377 1 167.409 248.404 176.792 0 -7.2338
845098 1 170.764 251.449 176.735 0 -7.93633
2587621 1 181.555 256.417 178.296 0 -7.88428
2587376 1 170.455 248.681 180.08 0 -7.36775
2587378 1 174.983 250.202 181.448 0 -7.39957
2587619 1 180.069 254.707 179.989 0 -8.06676
2602020 1 177.117 257.967 180.335 0 -7.58075
874023 1 184.561 256.666 181.67 0 -7.51691
2645341 1 181.498 260.008 190.822 0 -7.21839
2658803 1 253.57 232.43 192.958 0 -6.25364
2717717 1 234.429 269.475 206.942 0 -6.25389
2788994 1 222.925 248.364 222.922 0 -6.25474
1046947 1 200.593 254.873 221.617 0 -7.10954
1206318 1 232.468 286.724 253.362 0 -6.68666
2934317 1 232.388 283.481 256.784 0 -7.61746
2948715 1 227.908 285.513 258.084 0 -6.55504
1220717 1 234.415 285.398 257.877 0 -6.92722
3020708 1 205.682 283.465 273.941 0 -6.25164
554710 1 208.559 188.134 109.676 0 -6.2555
2355534 1 159.471 211.698 125.633 0 -6.2566
2356380 1 181.721 230.947 130.912 0 -6.66372
671083 1 124.372 218.091 133.938 0 -6.25621
2385058 1 172.345 227.548 133.891 0 -7.4682
685861 1 178.422 227.768 136.889 0 -7.70857
2399578 1 171.992 230.899 137.015 0 -7.44748
715149 1 207.31 242.346 144.753 0 -6.25505
2414088 1 140.594 231.231 148.351 0 -7.09211
700366 1 137.16 234.118 146.983 0 -6.61607
742126 1 131.865 194.443 151.303 0 -7.0724
2457166 1 138.446 230.629 149.673 0 -7.32555
2486328 1 137.351 234.323 149.659 0 -7.27617
729170 1 139.56 232.949 150.071 0 -6.85806
772357 1 105.228 232.776 159.465 0 -6.25485
788211 1 149.844 272.337 160.639 0 -6.26975
787269 1 205.39 243.572 162.666 0 -6.25797
788604 1 253.208 281.882 162.632 0 -6.25495
844381 1 179.894 235.894 173.427 0 -6.34248
2572979 1 173.361 248.688 173.426 0 -7.4035
2587138 1 171.951 246.77 175.202 0 -7.01164
2558698 1 172.286 253.249 175.38 0 -7.5726
858894 1 154.438 240.329 178.484 0 -6.56625
859373 1 151.055 243.679 178.489 0 -6.58269
2587498 1 175.372 253.4 178.405 0 -7.40805
874143 1 186.016 258.393 179.792 0 -7.47296
2587011 1 151.116 240.347 181.798 0 -7.53117
2601902 1 182.963 255.033 183.052 0 -8.10153
888541 1 180.114 258.098 182.802 0 -7.45526
2616301 1 183.203 258.31 186.46 0 -6.9227
903061 1 179.904 261.148 185.934 0 -7.2483
2630820 1 179.711 258.481 189.426 0 -7.44928
2731868 1 202.156 262.723 207.285 0 -6.29154
2789108 1 202.337 253.107 223.154 0 -7.50729
2789226 1 202.265 256.4 223.538 0 -7.5994
2789347 1 205.334 256.348 223.387 0 -7.48573
2803628 1 202.316 256.389 226.427 0 -7.56802
1061590 1 205.501 259.664 226.565 0 -6.68935
1235947 1 198.967 306.149 259.574 0 -6.25493
