ITEM: TIMESTEP
87215
ITEM: NUMBER OF ATOMS
65
ITEM: BOX BOUNDS pp pp pp
0 360
0 360
0 360
ITEM: ATOMS id type x y z
697009 1 144.75 144.75 144.75
768768 1 141.75 138.75 159.75
813174 1 159.75 168.75 168.75
826368 1 141.75 138.75 171.75
854703 1 186.75 126.75 177.75
885059 1 174.75 165.75 183.75
885417 1 168.75 174.75 183.75
886014 1 159.75 189.75 183.75
899817 1 168.75 174.75 186.75
900534 1 159.75 192.75 186.75
927779 1 174.75 153.75 192.75
1000864 1 189.75 180.75 207.75
1060372 1 153.75 228.75 219.75
1072141 1 180.75 162.75 222.75
1102858 1 171.75 210.75 228.75
1114378 1 171.75 138.75 231.75
1128655 1 162.75 135.75 234.75
1128778 1 171.75 138.75 234.75
1129018 1 171.75 144.75 234.75
1143534 1 159.75 147.75 237.75
1157458 1 171.75 135.75 240.75
1157575 1 162.75 138.75 240.75
1172694 1 159.75 156.75 243.75
1186736 1 165.75 147.75 246.75
1187091 1 150.75 156.75 246.75
1201139 1 174.75 147.75 249.75
1286825 1 192.75 129.75 267.75
1287065 1 192.75 135.75 267.75
2497128 1 143.25 149.25 161.25
2511535 1 164.25 149.25 164.25
2525447 1 140.25 137.25 167.25
2526159 1 116.25 155.25 167.25
2526415 1 164.25 161.25 167.25
2539620 1 179.25 131.25 170.25
2554011 1 152.25 131.25 173.25
2554361 1 122.25 140.25 173.25
2554366 1 137.25 140.25 173.25
2569975 1 164.25 170.25 176.25
2583894 1 161.25 158.25 179.25
2584732 1 155.25 179.25 179.25
2584856 1 167.25 182.25 179.25
2598776 1 167.25 170.25 182.25
2611498 1 173.25 128.25 185.25
2612938 1 173.25 164.25 185.25
2613653 1 158.25 182.25 185.25
2613892 1 155.25 188.25 185.25
2613900 1 179.25 188.25 185.25
2627695 1 164.25 173.25 188.25
2760766 1 137.25 260.25 215.25
2771349 1 206.25 164.25 218.25
2784055 1 164.25 122.25 221.25
2785627 1 200.25 161.25 221.25
2788130 1 149.25 224.25 221.25
2799300 1 179.25 143.25 224.25
2799786 1 197.25 155.25 224.25
2814054 1 161.25 152.25 227.25
2814058 1 173.25 152.25 227.25
2818124 1 131.25 254.25 227.25
2856777 1 170.25 140.25 236.25
2859296 1 167.25 203.25 236.25
2860845 1 134.25 242.25 236.25
2943539 1 176.25 149.25 254.25
2971983 1 188.25 140.25 260.25
3001508 1 203.25 158.25 266.25
3015185 1 194.25 140.25 269.25
