ITEM: TIMESTEP
91590
ITEM: NUMBER OF ATOMS
58
ITEM: BOX BOUNDS pp pp pp
0 360
0 360
0 360
ITEM: ATOMS id type x y z c_myKE c_myPE
2380009 1 145.756 95.3077 135.549 0 -7.42189
696169 1 139.222 119.287 146.729 0 -6.84829
2499165 1 130.4 200.557 161.012 0 -6.25648
2731978 1 171.862 266.287 210.12 0 -6.25852
2744212 1 151.64 209.999 218.399 0 -6.91833
2772538 1 171.899 197.36 222.876 0 -6.82595
2772658 1 173.817 199.281 221.622 0 -6.82281
1045491 1 151.693 205.684 222.726 0 -7.08799
2773132 1 151.638 208.297 222.909 0 -7.17819
2801934 1 155.865 209.964 222.713 0 -7.18425
1147851 1 151.324 258.125 241.975 0 -7.42637
2875610 1 148.279 257.941 245.211 0 -7.33427
2875731 1 151.374 257.751 245.278 0 -7.48018
2934180 1 178.248 280.302 256.725 0 -6.24781
2946289 1 143.158 222.879 259.908 0 -6.25547
2975580 1 180.188 232.438 266.288 0 -6.25464
3033901 1 183.376 251.585 277.11 0 -6.25439
3089094 1 161.047 189.737 291.808 0 -6.25435
3107459 1 175.145 292.965 294.882 0 -6.5552
3121858 1 171.856 293.011 298.271 0 -7.61877
3121979 1 175.102 296.432 298.192 0 -6.68619
3136259 1 174.937 293.084 301.389 0 -6.92529
666412 1 150.083 94.0244 135.487 0 -7.02872
652130 1 146.905 96.9692 133.807 0 -6.74988
724848 1 141.993 120.894 144.342 0 -7.25129
2438569 1 140.799 120.83 148.19 0 -6.92664
724969 1 143.525 121.045 146.465 0 -7.59803
769005 1 130.747 141.558 157.501 0 -6.82201
783525 1 130.867 144.814 160.759 0 -6.54307
868864 1 191.361 117.975 179.824 0 -6.25524
871007 1 137.026 175.291 179.723 0 -6.57401
871128 1 140.335 178.616 179.764 0 -7.52652
885527 1 137.026 178.657 183.089 0 -6.5736
887563 1 122.425 229.609 182.995 0 -6.25428
2657447 1 138.397 195.759 197.711 0 -6.26075
958487 1 137.14 202.151 200.901 0 -6.26255
988382 1 184.99 229.606 205.325 0 -6.25386
1032653 1 156.363 261.416 216.724 0 -6.57324
2746494 1 154.342 265.863 218.107 0 -6.91391
2746493 1 157.535 265.95 221.442 0 -6.60248
2801933 1 154.128 211.775 224.533 0 -6.70895
1087735 1 160.724 194.481 227.652 0 -6.24077
1074663 1 186.239 229.602 226.412 0 -6.25127
1075005 1 130.671 239.288 226.334 0 -6.54865
1089406 1 133.928 239.166 229.59 0 -6.82512
2830595 1 98.9295 211.733 234.056 0 -6.91212
1117116 1 102.025 211.733 237.152 0 -6.91161
1117235 1 98.8367 215.068 237.245 0 -6.60246
1134169 1 143.613 278.796 239.093 0 -6.53242
2861331 1 153.088 259.658 243.733 0 -7.11526
1148449 1 143.494 275.551 242.364 0 -6.81158
1150382 1 183.02 328.497 242.371 0 -6.25494
1176531 1 149.752 256.236 246.803 0 -7.23309
1188045 1 128.806 182.999 249.993 0 -6.25489
1216360 1 114.8 167.056 259.563 0 -6.25555
1233668 1 202.178 243.608 261.503 0 -6.25584
1277932 1 153.073 274.276 271.085 0 -6.25474
1392412 1 151.116 255.124 296.595 0 -6.25528
