ITEM: TIMESTEP
88540
ITEM: NUMBER OF ATOMS
108
ITEM: BOX BOUNDS pp pp pp
0 360
0 360
0 360
ITEM: ATOMS id type x y z
726787 1 198.75 168.75 150.75
759552 1 213.75 267.75 156.75
815103 1 186.75 216.75 168.75
815104 1 189.75 216.75 168.75
815223 1 186.75 219.75 168.75
827822 1 183.75 174.75 171.75
828785 1 192.75 198.75 171.75
829263 1 186.75 210.75 171.75
829383 1 186.75 213.75 171.75
829384 1 189.75 213.75 171.75
829503 1 186.75 216.75 171.75
829623 1 186.75 219.75 171.75
829742 1 183.75 222.75 171.75
843305 1 192.75 201.75 174.75
843424 1 189.75 204.75 174.75
843544 1 189.75 207.75 174.75
843663 1 186.75 210.75 174.75
843783 1 186.75 213.75 174.75
843902 1 183.75 216.75 174.75
844022 1 183.75 219.75 174.75
844142 1 183.75 222.75 174.75
857824 1 189.75 204.75 177.75
857943 1 186.75 207.75 177.75
858182 1 183.75 213.75 177.75
858302 1 183.75 216.75 177.75
858421 1 180.75 219.75 177.75
858541 1 180.75 222.75 177.75
871984 1 189.75 198.75 180.75
872223 1 186.75 204.75 180.75
872343 1 186.75 207.75 180.75
872462 1 183.75 210.75 180.75
872582 1 183.75 213.75 180.75
872701 1 180.75 216.75 180.75
872821 1 180.75 219.75 180.75
872940 1 177.75 222.75 180.75
886383 1 186.75 198.75 183.75
886503 1 186.75 201.75 183.75
886623 1 186.75 204.75 183.75
886742 1 183.75 207.75 183.75
886981 1 180.75 213.75 183.75
887100 1 177.75 216.75 183.75
887220 1 177.75 219.75 183.75
887460 1 177.75 225.75 183.75
900902 1 183.75 201.75 186.75
901022 1 183.75 204.75 186.75
901142 1 183.75 207.75 186.75
901619 1 174.75 219.75 186.75
915301 1 180.75 201.75 189.75
915421 1 180.75 204.75 189.75
915422 1 183.75 204.75 189.75
915777 1 168.75 213.75 189.75
915898 1 171.75 216.75 189.75
929328 1 141.75 192.75 192.75
958380 1 177.75 198.75 198.75
1030151 1 210.75 192.75 213.75
2227017 1 170.25 236.25 104.25
2443152 1 215.25 239.25 149.25
2484535 1 164.25 194.25 158.25
2515875 1 224.25 257.25 164.25
2526190 1 209.25 155.25 167.25
2526311 1 212.25 158.25 167.25
2528703 1 188.25 218.25 167.25
2540710 1 209.25 158.25 170.25
2543222 1 185.25 221.25 170.25
2557143 1 188.25 209.25 173.25
2557382 1 185.25 215.25 173.25
2557502 1 185.25 218.25 173.25
2557622 1 185.25 221.25 173.25
2557741 1 182.25 224.25 173.25
2571184 1 191.25 200.25 176.25
2571304 1 191.25 203.25 176.25
2571423 1 188.25 206.25 176.25
2571543 1 188.25 209.25 176.25
2571662 1 185.25 212.25 176.25
2571782 1 185.25 215.25 176.25
2571901 1 182.25 218.25 176.25
2572021 1 182.25 221.25 176.25
2572141 1 182.25 224.25 176.25
2585583 1 188.25 200.25 179.25
2585703 1 188.25 203.25 179.25
2585704 1 191.25 203.25 179.25
2585823 1 188.25 206.25 179.25
2585942 1 185.25 209.25 179.25
2586062 1 185.25 212.25 179.25
2586181 1 182.25 215.25 179.25
2586301 1 182.25 218.25 179.25
2586420 1 179.25 221.25 179.25
2599983 1 188.25 200.25 182.25
2600103 1 188.25 203.25 182.25
2600222 1 185.25 206.25 182.25
2600342 1 185.25 209.25 182.25
2600461 1 182.25 212.25 182.25
2600580 1 179.25 215.25 182.25
2600581 1 182.25 215.25 182.25
2600700 1 179.25 218.25 182.25
2600820 1 179.25 221.25 182.25
2614263 1 188.25 197.25 185.25
2614502 1 185.25 203.25 185.25
2614622 1 185.25 206.25 185.25
2614741 1 182.25 209.25 185.25
2614861 1 182.25 212.25 185.25
2614980 1 179.25 215.25 185.25
2615099 1 176.25 218.25 185.25
2629021 1 182.25 206.25 188.25
2630934 1 161.25 254.25 188.25
2643553 1 218.25 209.25 191.25
2645454 1 161.25 257.25 191.25
2659395 1 224.25 245.25 194.25
