ITEM: TIMESTEP
89000
ITEM: NUMBER OF ATOMS
51
ITEM: BOX BOUNDS pp pp pp
0 360
0 360
0 360
ITEM: ATOMS id type x y z
696049 1 144.75 120.75 144.75
696404 1 129.75 129.75 144.75
724729 1 144.75 117.75 150.75
724968 1 141.75 123.75 150.75
739486 1 135.75 126.75 153.75
812317 1 108.75 147.75 168.75
828653 1 156.75 195.75 171.75
843289 1 144.75 201.75 174.75
857450 1 147.75 195.75 177.75
871128 1 141.75 177.75 180.75
885774 1 159.75 183.75 183.75
899092 1 153.75 156.75 186.75
912998 1 111.75 144.75 189.75
914570 1 147.75 183.75 189.75
929212 1 153.75 189.75 192.75
942300 1 177.75 156.75 195.75
956461 1 180.75 150.75 198.75
999657 1 168.75 150.75 207.75
999781 1 180.75 153.75 207.75
1028586 1 195.75 153.75 213.75
1043089 1 144.75 156.75 216.75
1057487 1 138.75 156.75 219.75
1057627 1 198.75 159.75 219.75
1086412 1 153.75 159.75 225.75
1260645 1 132.75 195.75 261.75
1260767 1 138.75 198.75 261.75
1317649 1 144.75 180.75 273.75
1331570 1 147.75 168.75 276.75
1417729 1 144.75 162.75 294.75
2423802 1 125.25 116.25 146.25
2452843 1 128.25 122.25 152.25
2467964 1 131.25 140.25 155.25
2511404 1 131.25 146.25 164.25
2541290 1 149.25 173.25 170.25
2570336 1 167.25 179.25 176.25
2585333 1 158.25 194.25 179.25
2612079 1 116.25 143.25 185.25
2655410 1 149.25 146.25 194.25
2655661 1 182.25 152.25 194.25
2684461 1 182.25 152.25 200.25
2698496 1 167.25 143.25 203.25
2713260 1 179.25 152.25 206.25
2713621 1 182.25 161.25 206.25
2727422 1 185.25 146.25 209.25
2727662 1 185.25 152.25 209.25
2729098 1 173.25 188.25 209.25
2742650 1 149.25 167.25 212.25
2974248 1 143.25 197.25 260.25
3016851 1 152.25 182.25 269.25
3045647 1 140.25 182.25 275.25
3102771 1 152.25 170.25 287.25
