ITEM: TIMESTEP
90000
ITEM: NUMBER OF ATOMS
59
ITEM: BOX BOUNDS pp pp pp
0 360
0 360
0 360
ITEM: ATOMS id type x y z
652612 1 153.75 114.75 135.75
669306 1 195.75 171.75 138.75
683707 1 198.75 171.75 141.75
698107 1 198.75 171.75 144.75
812454 1 159.75 150.75 168.75
913366 1 135.75 153.75 189.75
913487 1 138.75 156.75 189.75
927646 1 135.75 150.75 192.75
927766 1 135.75 153.75 192.75
927767 1 138.75 153.75 192.75
942166 1 135.75 153.75 195.75
942408 1 141.75 159.75 195.75
942528 1 141.75 162.75 195.75
956808 1 141.75 159.75 198.75
1057981 1 180.75 168.75 219.75
1058944 1 189.75 192.75 219.75
1143298 1 171.75 141.75 237.75
1157820 1 177.75 144.75 240.75
1157939 1 174.75 147.75 240.75
1157940 1 177.75 147.75 240.75
1231520 1 237.75 186.75 255.75
1315129 1 144.75 117.75 273.75
1360625 1 192.75 174.75 282.75
1375027 1 198.75 174.75 285.75
1389307 1 198.75 171.75 288.75
1402748 1 201.75 147.75 291.75
2309211 1 152.25 131.25 122.25
2380611 1 152.25 116.25 137.25
2394891 1 152.25 113.25 140.25
2411466 1 197.25 167.25 143.25
2411586 1 197.25 170.25 143.25
2454899 1 176.25 173.25 152.25
2526891 1 152.25 173.25 167.25
2540212 1 155.25 146.25 170.25
2641486 1 137.25 158.25 191.25
2655766 1 137.25 155.25 194.25
2655886 1 137.25 158.25 194.25
2655887 1 140.25 158.25 194.25
2656128 1 143.25 164.25 194.25
2670287 1 140.25 158.25 197.25
2670526 1 137.25 164.25 197.25
2771581 1 182.25 170.25 218.25
2785852 1 155.25 167.25 221.25
2785861 1 182.25 167.25 221.25
2843557 1 110.25 170.25 233.25
2856898 1 173.25 143.25 236.25
2857140 1 179.25 149.25 236.25
2857383 1 188.25 155.25 236.25
2871177 1 170.25 140.25 239.25
2871298 1 173.25 143.25 239.25
2871418 1 173.25 146.25 239.25
2871539 1 176.25 149.25 239.25
2885699 1 176.25 143.25 242.25
2885820 1 179.25 146.25 242.25
3016387 1 200.25 170.25 269.25
3088747 1 200.25 179.25 284.25
3102908 1 203.25 173.25 287.25
3103029 1 206.25 176.25 287.25
3117428 1 203.25 176.25 290.25
