ITEM: TIMESTEP
90340
ITEM: NUMBER OF ATOMS
59
ITEM: BOX BOUNDS pp pp pp
0 360
0 360
0 360
ITEM: ATOMS id type x y z c_myKE c_myPE
2380491 1 151.297 109.979 133.538 0 -6.75777
2394891 1 151.663 109.944 136.846 0 -6.91857
2411466 1 197.409 167.376 140.088 0 -7.10732
2425987 1 200.751 170.793 143.165 0 -7.22854
913126 1 133.664 148.427 194.348 0 -7.25646
2641367 1 135.499 152.842 192.827 0 -8.49844
942288 1 136.944 154.659 194.296 0 -8.46394
2670046 1 133.618 151.488 197.343 0 -7.4839
2670167 1 136.921 154.814 197.481 0 -8.30126
2670287 1 136.89 157.723 197.596 0 -8.23196
956809 1 140.071 157.97 197.457 0 -8.09579
2670408 1 139.877 160.942 197.652 0 -7.52099
2684688 1 140.106 158.054 200.51 0 -7.70875
2786824 1 191.041 192.989 222.895 0 -6.25402
1143418 1 173.743 140.131 238.626 0 -7.61592
1158060 1 176.717 146.162 242.22 0 -7.38164
2871659 1 174.009 146.43 244.995 0 -7.81108
1172219 1 177.038 146.287 245.127 0 -7.9429
2959519 1 240.828 187.828 261.174 0 -6.2547
3116348 1 203.785 146.351 298.218 0 -6.25383
595732 1 151.156 128.84 119.232 0 -6.25549
667011 1 149.802 111.727 135.302 0 -7.04283
683587 1 199.175 168.903 138.332 0 -7.4275
697987 1 199.13 169.277 141.635 0 -7.47196
697988 1 202.228 169.091 141.572 0 -7.3355
2469300 1 176.681 173.514 151.123 0 -6.25574
798890 1 149.924 172.261 165.818 0 -6.25526
827211 1 153.03 143.476 170.153 0 -6.54911
2525814 1 156.291 146.73 170.273 0 -6.8256
899086 1 133.909 151.273 191.226 0 -7.64139
2655767 1 137.185 154.488 191.374 0 -7.54748
942047 1 135.379 150.016 195.872 0 -8.11511
942167 1 135.347 153.152 195.897 0 -8.49062
2670168 1 138.531 156.333 195.903 0 -8.16195
942529 1 141.358 162.652 195.752 0 -7.22783
956927 1 135.207 162.615 198.77 0 -7.28273
1043460 1 178.483 165.854 220.05 0 -6.59688
1043581 1 181.814 169.049 220.134 0 -6.90357
1072253 1 153.134 167.111 224.507 0 -6.2616
1057861 1 181.817 165.953 223.235 0 -6.90498
1129958 1 106.51 170.295 237.233 0 -6.25392
2856657 1 172.269 138.384 240.557 0 -7.6335
2871298 1 175.529 141.636 240.54 0 -7.73457
1143660 1 178.622 147.778 240.448 0 -7.12399
1143904 1 188.216 153.056 240.44 0 -6.26645
1172096 1 168.936 138.313 243.772 0 -6.6287
2885697 1 172.237 141.474 243.553 0 -7.53996
1157820 1 178.708 141.711 243.883 0 -7.69844
2885818 1 175.383 141.577 247.144 0 -6.94833
2885819 1 178.703 144.772 246.685 0 -7.45672
1288387 1 200.969 170.302 275.535 0 -6.25895
1315129 1 143.531 112.872 280.654 0 -6.25427
1360625 1 194.428 173.362 290.15 0 -6.63384
1360746 1 197.647 176.627 290.023 0 -6.79329
1360867 1 200.974 179.928 290.192 0 -6.82713
1375026 1 197.845 173.376 293.463 0 -7.8813
1389428 1 204.095 173.094 295.131 0 -8.04414
1375029 1 207.654 175.042 293.254 0 -8.06344
1403949 1 205.753 176.839 296.93 0 -8.0151
