ITEM: TIMESTEP
90340
ITEM: NUMBER OF ATOMS
59
ITEM: BOX BOUNDS pp pp pp
0 360
0 360
0 360
ITEM: ATOMS id type x y z
652612 1 153.75 114.75 135.75
667012 1 153.75 114.75 138.75
683586 1 195.75 168.75 141.75
698107 1 198.75 171.75 144.75
927646 1 135.75 150.75 192.75
927767 1 138.75 153.75 192.75
927887 1 138.75 156.75 192.75
942166 1 135.75 153.75 195.75
942287 1 138.75 156.75 195.75
942407 1 138.75 159.75 195.75
942408 1 141.75 159.75 195.75
942528 1 141.75 162.75 195.75
956808 1 141.75 159.75 198.75
1058944 1 189.75 192.75 219.75
1128899 1 174.75 141.75 234.75
1143540 1 177.75 147.75 237.75
1157939 1 174.75 147.75 240.75
1157940 1 177.75 147.75 240.75
1231520 1 237.75 186.75 255.75
1402748 1 201.75 147.75 291.75
2309211 1 152.25 131.25 122.25
2380611 1 152.25 116.25 137.25
2397186 1 197.25 170.25 140.25
2411586 1 197.25 170.25 143.25
2411587 1 200.25 170.25 143.25
2454899 1 176.25 173.25 152.25
2526891 1 152.25 173.25 167.25
2540212 1 155.25 146.25 170.25
2540333 1 158.25 149.25 170.25
2641246 1 137.25 152.25 191.25
2641367 1 140.25 155.25 191.25
2655646 1 137.25 152.25 194.25
2655766 1 137.25 155.25 194.25
2655887 1 140.25 158.25 194.25
2656128 1 143.25 164.25 194.25
2670526 1 137.25 164.25 197.25
2771460 1 179.25 167.25 218.25
2771581 1 182.25 170.25 218.25
2785852 1 155.25 167.25 221.25
2785861 1 182.25 167.25 221.25
2843557 1 110.25 170.25 233.25
2856778 1 173.25 140.25 236.25
2856899 1 176.25 143.25 236.25
2857140 1 179.25 149.25 236.25
2857383 1 188.25 155.25 236.25
2871177 1 170.25 140.25 239.25
2871298 1 173.25 143.25 239.25
2871300 1 179.25 143.25 239.25
2885699 1 176.25 143.25 242.25
2885820 1 179.25 146.25 242.25
3016387 1 200.25 170.25 269.25
3043009 1 146.25 116.25 275.25
3088505 1 194.25 173.25 284.25
3088626 1 197.25 176.25 284.25
3088747 1 200.25 179.25 284.25
3102906 1 197.25 173.25 287.25
3102908 1 203.25 173.25 287.25
3103029 1 206.25 176.25 287.25
3117428 1 203.25 176.25 290.25
