ITEM: TIMESTEP
84609
ITEM: NUMBER OF ATOMS
72
ITEM: BOX BOUNDS pp pp pp
0 360
0 360
0 360
ITEM: ATOMS id type x y z
425125 1 252.75 186.75 87.75
425246 1 255.75 189.75 87.75
439645 1 252.75 189.75 90.75
452958 1 231.75 162.75 93.75
498560 1 237.75 222.75 102.75
512840 1 237.75 219.75 105.75
570059 1 174.75 210.75 117.75
586027 1 198.75 249.75 120.75
597305 1 192.75 171.75 123.75
597546 1 195.75 177.75 123.75
611585 1 192.75 168.75 126.75
611705 1 192.75 171.75 126.75
611826 1 195.75 174.75 126.75
611947 1 198.75 177.75 126.75
626346 1 195.75 177.75 129.75
711422 1 183.75 144.75 147.75
728834 1 219.75 219.75 150.75
769607 1 138.75 159.75 159.75
769726 1 135.75 162.75 159.75
784127 1 138.75 162.75 162.75
784977 1 168.75 183.75 162.75
799257 1 168.75 180.75 165.75
799259 1 174.75 180.75 165.75
799377 1 168.75 183.75 165.75
799497 1 168.75 186.75 165.75
799498 1 171.75 186.75 165.75
799619 1 174.75 189.75 165.75
813658 1 171.75 180.75 168.75
813777 1 168.75 183.75 168.75
813779 1 174.75 183.75 168.75
843907 1 198.75 216.75 174.75
873187 1 198.75 228.75 180.75
873306 1 195.75 231.75 180.75
873427 1 198.75 234.75 180.75
887707 1 198.75 231.75 183.75
902108 1 201.75 231.75 186.75
927789 1 204.75 153.75 192.75
928985 1 192.75 183.75 192.75
960552 1 213.75 252.75 198.75
2051013 1 278.25 155.25 68.25
2110140 1 179.25 194.25 80.25
2195703 1 188.25 173.25 98.25
2325305 1 194.25 173.25 125.25
2325307 1 200.25 173.25 125.25
2338259 1 176.25 137.25 128.25
2339584 1 191.25 170.25 128.25
2339705 1 194.25 173.25 128.25
2339825 1 194.25 176.25 128.25
2339826 1 197.25 176.25 128.25
2339946 1 197.25 179.25 128.25
2411483 1 248.25 167.25 143.25
2425022 1 185.25 146.25 146.25
2425141 1 182.25 149.25 146.25
2439421 1 182.25 146.25 149.25
2468110 1 209.25 143.25 155.25
2498578 1 173.25 185.25 161.25
2512979 1 176.25 185.25 164.25
2513098 1 173.25 188.25 164.25
2527137 1 170.25 179.25 167.25
2527378 1 173.25 185.25 167.25
2527379 1 176.25 185.25 167.25
2582684 1 131.25 128.25 179.25
2601065 1 194.25 227.25 182.25
2601427 1 200.25 236.25 182.25
2613781 1 182.25 185.25 185.25
2615466 1 197.25 227.25 185.25
2615826 1 197.25 236.25 185.25
2615945 1 194.25 239.25 185.25
2628652 1 155.25 197.25 188.25
2630346 1 197.25 239.25 188.25
2656865 1 194.25 182.25 194.25
2758028 1 203.25 191.25 215.25
