ITEM: TIMESTEP
93000
ITEM: NUMBER OF ATOMS
78
ITEM: BOX BOUNDS pp pp pp
0 360
0 360
0 360
ITEM: ATOMS id type x y z c_myKE c_myPE
2212245 1 132.462 229.069 95.3759 0.0744168 -7.32364
2226644 1 129.17 229.387 98.7895 0.0315863 -6.77838
2228688 1 138.912 283.093 98.5964 0.0862096 -6.69861
2316305 1 194.31 315.671 117.728 0.117315 -6.49876
2311987 1 200.825 200.612 119.713 0.262054 -5.94551
2340661 1 181.158 197.02 124.288 0.111385 -6.83196
2326267 1 200.921 197.207 122.6 0.0975621 -6.83995
2342091 1 151.528 235.727 123.741 0.0556966 -7.50995
2342210 1 148.413 238.942 124.374 0.237784 -6.50001
2356491 1 151.286 235.221 127.21 0.0795404 -6.71834
2368731 1 149.735 178.124 130.692 0.309204 -6.47543
2370282 1 120.666 221.537 132.611 0.253042 -6.46634
2486589 1 208.945 250.076 155.992 0.209863 -8.17506
2486363 1 253.427 242.044 157.819 0.117224 -6.71132
801909 1 208.877 246.916 159.274 0.0613067 -8.08457
787389 1 207.167 251.509 157.727 0.220166 -8.31347
787510 1 208.873 250.044 159.241 0.0790269 -8.26354
2486711 1 213.465 251.826 158.032 0.43986 -8.00987
2501108 1 203.962 254.621 157.903 0.277728 -7.31444
787629 1 205.747 256.588 159.365 0.122989 -7.88686
2500991 1 216.783 248.388 161.039 0.42936 -8.25425
816190 1 205.977 249.958 162.36 0.0994647 -8.34662
2501110 1 210.523 251.666 161.012 0.0914973 -8.51324
787391 1 212.134 250.045 162.436 0.0532967 -8.78637
787631 1 216.74 251.64 161.077 0.254552 -8.53973
2501112 1 219.863 251.701 160.992 0.113836 -8.65298
2515508 1 207.222 254.594 160.968 0.31763 -8.23078
2501109 1 210.226 254.743 161.071 0.0677812 -8.5507
2514281 1 119.365 219.85 164.406 0.0887961 -5.853
2515630 1 210.621 251.471 164.173 0.120183 -8.67149
2544071 1 216.74 251.618 164.225 0.135707 -8.67935
801914 1 219.818 251.658 164.275 0.158363 -8.43067
801907 1 210.146 254.802 164.156 0.012943 -7.82909
2544313 1 221.913 253.393 165.686 0.268088 -7.74097
801912 1 213.584 251.739 167.519 0.0223801 -8.2386
2555441 1 117.824 165.65 174.001 0.0351551 -6.48186
2657939 1 175.458 209.859 190.801 0.0552438 -6.42876
2630479 1 238.921 245.366 189.559 0.242058 -7.09494
2671254 1 161.068 181.504 197.675 0.0924555 -7.04324
2671493 1 157.833 184.485 197.343 0.436208 -6.23589
2685173 1 157.914 168.609 202.305 0.152868 -6.59963
469732 1 151.358 226.624 90.4285 0.233622 -6.6688
484133 1 153.856 226.509 93.7324 0.107385 -7.05627
556747 1 198.682 242.382 111.731 0.0203342 -7.09259
580850 1 141.69 118.151 116.3 0.0991415 -6.45927
584825 1 192.037 222.672 116.301 0.0685967 -5.39355
598141 1 180.053 194.2 119.084 0.11048 -7.45637
587935 1 160.545 305.904 118.055 0.188754 -5.75449
612421 1 178.658 191.704 122.365 0.0156249 -7.27395
2326021 1 181.689 194.132 121.145 0.0524486 -7.37846
617226 1 199.016 316.681 122.182 0.340495 -6.33018
614093 1 154.272 235.86 124.265 0.0310221 -7.06373
656803 1 122.115 223.051 134.333 0.143674 -6.98422
2385060 1 179.965 230.908 137.605 0.216679 -6.01358
746105 1 194.637 298.003 152.727 0.545791 -6.64415
772393 1 218.274 231.038 157.47 0.0571082 -6.70064
772394 1 221.125 230.553 157.795 0.0362414 -6.53621
2500988 1 204.363 251.92 157.473 0.0698714 -8.06645
786913 1 217.862 234.208 160.897 0.501839 -7.35037
772763 1 252.017 240.455 159.433 0.175038 -6.8434
772882 1 248.602 243.544 159.189 0.0849004 -7.07151
773111 1 215.081 250.242 159.442 0.0275013 -8.2906
787508 1 205.921 253.039 159.415 0.188713 -8.2198
787513 1 221.428 250.137 162.686 0.0551141 -8.1001
801911 1 213.51 251.785 164.061 0.00926151 -8.10903
2544308 1 207.233 254.916 163.959 0.0549113 -8.00876
2515273 1 221.66 246.764 165.662 0.49435 -7.1077
830590 1 211.844 253.413 165.763 0.129814 -8.38047
827324 1 125.718 160.362 170.653 0.132835 -6.85991
830351 1 215.26 249.832 168.759 0.44746 -8.36529
816432 1 218.298 253.222 168.912 0.285668 -7.92791
841844 1 125.591 163.829 173.869 0.0730688 -6.16494
846300 1 176.705 281.481 173.556 0.0793095 -6.49279
859602 1 121.334 252.931 176.558 0.260897 -6.18323
887705 1 192.766 233.576 183.464 0.256298 -6.2463
888288 1 140.353 251.646 185.003 0.0312355 -6.183
902479 1 237.325 243.658 188.144 0.194219 -7.01905
902480 1 240.306 243.447 188.06 0.208905 -6.48694
