ITEM: TIMESTEP
93498
ITEM: NUMBER OF ATOMS
78
ITEM: BOX BOUNDS pp pp pp
0 360
0 360
0 360
ITEM: ATOMS id type x y z c_myKE c_myPE
2197732 1 152.888 228.125 92.2662 0 -6.54108
2212245 1 132.322 229.261 95.313 0 -6.8253
2226644 1 129.066 229.147 98.5716 0 -6.54137
2228688 1 138.712 283.488 98.4912 0 -6.2546
2284746 1 197.383 243.967 113.199 0 -6.25594
2316305 1 194.189 315.403 117.633 0 -6.8233
2311987 1 200.469 200.707 119.424 0 -6.5446
2330706 1 197.45 315.278 120.885 0 -6.54773
2340661 1 181.276 197.422 124.106 0 -6.71762
2342091 1 151.513 235.749 123.979 0 -7.50727
2342210 1 148.15 238.934 123.899 0 -6.60698
2356491 1 151.365 235.538 127.096 0 -7.0358
2368731 1 149.53 178.214 130.39 0 -6.25405
2370282 1 120.705 221.551 132.257 0 -6.54551
2384802 1 120.826 224.809 135.512 0 -6.82185
731705 1 192.936 299.437 151.471 0 -6.25563
2486589 1 208.809 250.229 155.989 0 -8.20671
2486708 1 205.636 253.344 156.027 0 -8.06962
2500393 1 219.479 232.535 159.257 0 -6.97078
787389 1 207.171 251.727 157.725 0 -8.53165
787510 1 208.857 250.204 159.226 0 -8.7432
2486711 1 213.402 251.794 157.717 0 -8.52806
2501108 1 203.89 254.847 157.799 0 -7.95988
773109 1 207.09 254.875 157.755 0 -8.68849
787629 1 205.606 256.595 159.284 0 -8.00095
2500991 1 216.606 248.557 160.859 0 -8.02619
787391 1 212.027 250.2 162.372 0 -8.82485
787631 1 216.521 251.766 160.888 0 -8.7911
2501112 1 219.6 251.828 160.945 0 -8.44259
2515508 1 207.146 254.905 160.928 0 -8.57861
2501109 1 210.263 254.918 160.893 0 -8.78287
2515751 1 213.335 254.915 160.919 0 -8.80584
2501230 1 210.181 258.064 160.959 0 -8.03398
2529793 1 222.631 248.4 164.282 0 -7.40815
2544071 1 216.602 251.799 164.013 0 -8.78194
801914 1 219.636 251.817 164.098 0 -8.48372
802032 1 213.372 254.964 164.089 0 -8.38291
801913 1 216.41 254.981 164.127 0 -8.4429
2558832 1 219.681 254.843 167.407 0 -7.50392
2555441 1 117.633 165.444 173.771 0 -6.25096
2657939 1 175.029 210.081 191.035 0 -6.24992
2630479 1 238.959 245.308 189.832 0 -7.04815
2671254 1 161.033 181.412 197.401 0 -6.82141
2671493 1 157.778 184.667 197.272 0 -6.55098
2685173 1 157.868 168.642 202.515 0 -6.25506
469732 1 151.121 226.546 90.4952 0 -6.8264
580850 1 141.553 117.966 116.031 0 -6.25508
584825 1 192.609 223.23 116.034 0 -6.25617
598141 1 180.098 194.175 118.933 0 -7.34977
587935 1 160.702 306.185 117.958 0 -6.25594
612421 1 178.675 191.689 122.207 0 -7.10055
2326021 1 181.845 194.264 120.87 0 -7.51885
598387 1 202.05 198.937 121.194 0 -6.8313
614093 1 154.364 236.066 124.232 0 -7.12097
2385060 1 179.835 230.845 137.134 0 -6.25864
772394 1 221.271 230.8 157.51 0 -6.83127
758483 1 252.056 243.736 156.163 0 -6.57177
772990 1 210.331 248.562 157.642 0 -8.03802
786913 1 217.947 234.159 160.919 0 -6.58186
772763 1 252.006 240.427 159.485 0 -7.52453
772882 1 248.682 243.737 159.526 0 -6.57541
773111 1 214.99 250.154 159.251 0 -8.43379
2500989 1 208.733 253.333 159.302 0 -8.81733
2515510 1 211.826 253.334 159.311 0 -8.82784
800801 1 117.979 221.275 162.641 0 -6.25495
787513 1 221.097 250.135 162.401 0 -7.81652
801911 1 213.549 251.793 164.002 0 -8.8166
787630 1 211.731 256.514 162.527 0 -8.43793
2544192 1 218.04 253.386 165.696 0 -8.50965
2544313 1 221.222 253.378 165.734 0 -7.57553
827324 1 125.601 160.683 170.273 0 -6.82509
841844 1 125.514 163.932 173.517 0 -6.526
846300 1 176.651 281.87 173.454 0 -6.25539
859602 1 121.161 253.173 176.645 0 -6.2549
887705 1 192.546 233.981 183.075 0 -6.27247
888288 1 140.301 251.928 184.976 0 -6.25468
902479 1 237.203 243.814 188.09 0 -6.76782
902480 1 240.496 243.462 188.047 0 -6.92761
