ITEM: TIMESTEP
90246
ITEM: NUMBER OF ATOMS
59
ITEM: BOX BOUNDS pp pp pp
0 360
0 360
0 360
ITEM: ATOMS id type x y z
654538 1 171.75 162.75 135.75
668937 1 168.75 162.75 138.75
727140 1 177.75 177.75 150.75
871860 1 177.75 195.75 180.75
884923 1 126.75 162.75 183.75
885885 1 132.75 186.75 183.75
1028329 1 144.75 147.75 213.75
1042609 1 144.75 144.75 216.75
1042730 1 147.75 147.75 216.75
1042971 1 150.75 153.75 216.75
1043937 1 168.75 177.75 216.75
1056540 1 177.75 132.75 219.75
1058457 1 168.75 180.75 219.75
1161037 1 108.75 225.75 240.75
1172593 1 216.75 153.75 243.75
1188067 1 198.75 180.75 246.75
1203416 1 165.75 204.75 249.75
1203535 1 162.75 207.75 249.75
1217694 1 159.75 201.75 252.75
1217814 1 159.75 204.75 252.75
1217815 1 162.75 204.75 252.75
1232213 1 156.75 204.75 255.75
1232333 1 156.75 207.75 255.75
1246492 1 153.75 201.75 258.75
1246612 1 153.75 204.75 258.75
1261012 1 153.75 204.75 261.75
1347042 1 123.75 195.75 279.75
1361230 1 207.75 189.75 282.75
1361322 1 123.75 192.75 282.75
1361560 1 117.75 198.75 282.75
1375630 1 207.75 189.75 285.75
1375631 1 210.75 189.75 285.75
2455140 1 179.25 179.25 152.25
2599740 1 179.25 194.25 182.25
2615208 1 143.25 221.25 185.25
2756450 1 149.25 152.25 215.25
2757285 1 134.25 173.25 215.25
2785735 1 164.25 164.25 221.25
2931415 1 164.25 206.25 251.25
2945693 1 158.25 203.25 254.25
2945813 1 158.25 206.25 254.25
2958049 1 146.25 152.25 257.25
2958168 1 143.25 155.25 257.25
2960092 1 155.25 203.25 257.25
2960212 1 155.25 206.25 257.25
2974611 1 152.25 206.25 260.25
2990791 1 92.25 251.25 263.25
3044106 1 197.25 143.25 275.25
3074829 1 206.25 191.25 281.25
3074830 1 209.25 191.25 281.25
3075041 1 122.25 197.25 281.25
3089109 1 206.25 188.25 284.25
3089230 1 209.25 191.25 284.25
3089231 1 212.25 191.25 284.25
3089321 1 122.25 194.25 284.25
3089350 1 209.25 194.25 284.25
3102798 1 233.25 170.25 287.25
3103510 1 209.25 188.25 287.25
3119205 1 134.25 221.25 290.25
