ITEM: TIMESTEP
90000
ITEM: NUMBER OF ATOMS
59
ITEM: BOX BOUNDS pp pp pp
0 360
0 360
0 360
ITEM: ATOMS id type x y z
754851 1 150.75 150.75 156.75
755212 1 153.75 159.75 156.75
842211 1 150.75 174.75 174.75
842452 1 153.75 180.75 174.75
856611 1 150.75 174.75 177.75
856855 1 162.75 180.75 177.75
914205 1 132.75 174.75 189.75
928854 1 159.75 180.75 192.75
943373 1 156.75 183.75 195.75
971331 1 150.75 162.75 201.75
1014535 1 162.75 162.75 210.75
1057487 1 138.75 156.75 219.75
1060132 1 153.75 222.75 219.75
1060252 1 153.75 225.75 219.75
1072491 1 150.75 171.75 222.75
1073576 1 165.75 198.75 222.75
1074172 1 153.75 213.75 222.75
1088812 1 153.75 219.75 225.75
1088813 1 156.75 219.75 225.75
1102131 1 150.75 192.75 228.75
1145581 1 180.75 198.75 237.75
1174375 1 162.75 198.75 243.75
1202805 1 132.75 189.75 249.75
1274931 1 150.75 192.75 264.75
1274949 1 204.75 192.75 264.75
1289572 1 153.75 198.75 267.75
1302913 1 216.75 171.75 270.75
1318263 1 186.75 195.75 273.75
1331595 1 222.75 168.75 276.75
1331714 1 219.75 171.75 276.75
1346955 1 222.75 192.75 279.75
1404074 1 219.75 180.75 291.75
2468452 1 155.25 152.25 155.25
2511648 1 143.25 152.25 164.25
2642333 1 158.25 179.25 191.25
2642334 1 161.25 179.25 191.25
2671253 1 158.25 182.25 197.25
2671373 1 158.25 185.25 197.25
2684574 1 161.25 155.25 200.25
2714085 1 134.25 173.25 206.25
2744453 1 158.25 212.25 212.25
2744570 1 149.25 215.25 212.25
2759213 1 158.25 221.25 215.25
2788367 1 140.25 230.25 221.25
2801577 1 170.25 200.25 224.25
2802172 1 155.25 215.25 224.25
2830373 1 158.25 200.25 230.25
2844651 1 152.25 197.25 233.25
2858692 1 155.25 188.25 236.25
2887854 1 161.25 197.25 242.25
2902243 1 128.25 197.25 245.25
3002593 1 218.25 185.25 266.25
3031729 1 146.25 194.25 272.25
3031850 1 149.25 197.25 272.25
3046246 1 137.25 197.25 275.25
3059714 1 221.25 173.25 278.25
3074806 1 137.25 191.25 281.25
3088854 1 161.25 182.25 284.25
3175271 1 212.25 182.25 302.25
