ITEM: TIMESTEP
97000
ITEM: NUMBER OF ATOMS
71
ITEM: BOX BOUNDS pp pp pp
0 360
0 360
0 360
ITEM: ATOMS id type x y z
769011 1 150.75 144.75 159.75
783409 1 144.75 144.75 162.75
812329 1 144.75 147.75 168.75
842330 1 147.75 177.75 174.75
913495 1 162.75 156.75 189.75
942057 1 168.75 150.75 195.75
971098 1 171.75 156.75 201.75
985495 1 162.75 156.75 204.75
1029546 1 195.75 177.75 213.75
1043461 1 180.75 165.75 216.75
1071540 1 177.75 147.75 222.75
1417752 1 213.75 162.75 294.75
1417755 1 222.75 162.75 294.75
1445954 1 219.75 147.75 300.75
1446311 1 210.75 156.75 300.75
1446550 1 207.75 162.75 300.75
1446670 1 207.75 165.75 300.75
1446672 1 213.75 165.75 300.75
1446676 1 225.75 165.75 300.75
1475231 1 210.75 159.75 306.75
1475351 1 210.75 162.75 306.75
1489267 1 198.75 150.75 309.75
1489388 1 201.75 153.75 309.75
1489392 1 213.75 153.75 309.75
1489629 1 204.75 159.75 309.75
1489631 1 210.75 159.75 309.75
1489749 1 204.75 162.75 309.75
1490354 1 219.75 177.75 309.75
1504032 1 213.75 159.75 312.75
1518310 1 207.75 156.75 315.75
1518430 1 207.75 159.75 315.75
1518676 1 225.75 165.75 315.75
1546996 1 225.75 153.75 321.75
1561629 1 204.75 159.75 324.75
1575906 1 195.75 156.75 327.75
1576505 1 192.75 171.75 327.75
1589828 1 201.75 144.75 330.75
2497010 1 149.25 146.25 161.25
2713736 1 167.25 164.25 206.25
2713739 1 176.25 164.25 206.25
2727898 1 173.25 158.25 209.25
2757061 1 182.25 167.25 215.25
2785741 1 182.25 164.25 221.25
2857379 1 176.25 155.25 236.25
2943544 1 191.25 149.25 254.25
2987109 1 206.25 158.25 263.25
3116466 1 197.25 152.25 290.25
3145872 1 215.25 167.25 296.25
3160031 1 212.25 161.25 299.25
3160269 1 206.25 167.25 299.25
3174431 1 212.25 161.25 302.25
3187991 1 212.25 140.25 305.25
3188593 1 218.25 155.25 305.25
3188829 1 206.25 161.25 305.25
3188830 1 209.25 161.25 305.25
3189552 1 215.25 179.25 305.25
3202751 1 212.25 149.25 308.25
3203230 1 209.25 161.25 308.25
3203476 1 227.25 167.25 308.25
3203591 1 212.25 170.25 308.25
3217508 1 203.25 158.25 311.25
3231912 1 215.25 158.25 314.25
3246186 1 197.25 155.25 317.25
3246431 1 212.25 161.25 317.25
3246549 1 206.25 164.25 317.25
3260350 1 209.25 149.25 320.25
3274509 1 206.25 143.25 323.25
3289871 1 212.25 167.25 326.25
3304152 1 215.25 164.25 329.25
3375906 1 197.25 158.25 344.25
3433386 1 197.25 155.25 356.25
