ITEM: TIMESTEP
100324
ITEM: NUMBER OF ATOMS
77
ITEM: BOX BOUNDS pp pp pp
0 360
0 360
0 360
ITEM: ATOMS id type x y z c_myKE c_myPE
2038900 1 307.713 215.256 57.0573 0 -6.25495
2195970 1 273.855 178.231 94.1093 0 -6.25623
2227898 1 301.326 261.157 100.465 0 -6.25506
554259 1 302.722 172.007 110.171 0 -6.54312
2344197 1 360.085 291.724 123.873 0 -6.71569
644278 1 363.26 269.379 127.107 0 -6.53851
2343596 1 358.665 273.974 126.092 0 -6.53755
2368985 1 196.04 186.548 130.442 0 -6.25445
628779 1 304.503 238.828 129.18 0 -6.25722
2369137 1 292.88 195.967 133.717 0 -8.26577
2395858 1 171.789 133.574 136.806 0 -6.25637
2412693 1 286.718 195.941 136.971 0 -8.38482
2441134 1 280.26 193.003 140.18 0 -7.56633
2426854 1 283.386 192.858 140.093 0 -8.34152
713374 1 283.593 195.995 140.156 0 -8.77906
684575 1 286.65 195.988 140.118 0 -8.80415
684692 1 286.763 199.139 140.182 0 -8.75865
2412695 1 289.904 199.159 140.063 0 -8.43545
2426851 1 283.553 199.212 143.306 0 -8.53312
699095 1 286.726 199.129 143.301 0 -8.49188
725938 1 173.623 143.313 148.096 0 -7.00848
2439416 1 170.552 146.284 148.347 0 -7.06802
2455427 1 328.01 186.445 151.467 0 -6.57808
2459855 1 289.82 304.562 151.5 0 -6.25377
727667 1 328.137 189.694 154.714 0 -6.83883
799307 1 326.869 178.197 162.217 0 -7.85935
2498268 1 331.29 177.072 161.102 0 -7.85801
785028 1 331.458 180.08 160.937 0 -7.09226
2525361 1 247.093 129.128 167.472 0 -6.25399
2542195 1 355.547 196.094 168.713 0 -6.82226
2556475 1 355.668 192.839 171.971 0 -6.54438
2672014 1 288.551 200.551 197.441 0 -6.25192
411460 1 306.111 205.335 76.5499 0 -6.25432
455840 1 240.354 239.183 89.3129 0 -6.25453
515621 1 307.249 294.722 101.977 0 -6.54676
529901 1 307.371 291.467 105.233 0 -6.82214
2253338 1 300.951 170.236 108.588 0 -6.82807
569152 1 342.435 188.134 112.883 0 -6.25501
585942 1 310.54 249.981 116.072 0 -6.25653
616436 1 354.91 294.971 122.694 0 -7.34944
2344196 1 358.334 293.491 125.218 0 -7.18149
626857 1 294.515 197.543 132.094 0 -7.30025
2383777 1 291.38 194.381 135.306 0 -7.96295
670296 1 288.348 197.594 135.442 0 -8.52741
670297 1 291.422 197.542 135.416 0 -8.66788
670417 1 294.504 197.616 135.197 0 -8.1039
2384016 1 291.517 200.78 135.481 0 -7.98093
2383773 1 285.029 194.375 138.54 0 -8.3763
2383893 1 286.855 199.136 137.083 0 -8.79357
2398177 1 291.379 197.47 138.476 0 -8.48489
672091 1 275.314 243.72 137.078 0 -6.54406
683815 1 162.553 173.452 140.359 0 -6.25468
698972 1 281.965 194.462 141.738 0 -8.43806
2426971 1 278.882 197.601 141.693 0 -8.05091
684693 1 282.045 197.576 141.768 0 -8.71448
2426974 1 285.134 197.586 141.736 0 -8.79761
684935 1 288.266 200.829 141.687 0 -8.16788
686371 1 275.431 240.471 140.341 0 -6.82129
698596 1 229.443 184.842 144.711 0 -6.57348
713117 1 232.766 188.153 144.753 0 -7.52254
698971 1 278.753 194.465 145.115 0 -6.79604
713133 1 282.035 197.603 144.949 0 -7.97836
2441613 1 285.178 200.878 144.832 0 -7.73531
2439820 1 307.351 151.084 146.734 0 -6.25381
726952 1 342.505 170.194 147.927 0 -6.25491
727397 1 232.812 184.842 148.078 0 -6.5721
740219 1 171.94 141.39 149.741 0 -7.24004
2453698 1 170.292 143.307 151.417 0 -7.01225
755453 1 154.234 165.811 157.546 0 -6.25549
2498387 1 326.65 178.362 159.251 0 -7.10858
2498267 1 329.621 178.498 159.437 0 -7.72423
2512547 1 329.836 175.315 162.746 0 -7.1898
789713 1 345.647 307.395 162.651 0 -6.25542
856425 1 321.976 169.097 178.564 0 -6.52589
870826 1 325.235 169.009 181.822 0 -6.82319
885805 1 258.384 185.325 185.159 0 -6.78638
914726 1 259.804 187.826 188.402 0 -7.06746
