ITEM: TIMESTEP
96000
ITEM: NUMBER OF ATOMS
88
ITEM: BOX BOUNDS pp pp pp
0 360
0 360
0 360
ITEM: ATOMS id type x y z c_myKE c_myPE
612517 1 104.846 194.091 125.836 0.163489 -6.50286
2354320 1 116.26 180.16 130.624 0.311361 -7.93832
655240 1 113.245 183.192 130.736 0.0470572 -8.08008
2368019 1 177.007 160.805 132.408 0.0896678 -6.57208
2383120 1 113.287 180.223 133.63 0.0400828 -8.05546
2354559 1 113.096 183.237 133.757 0.0888995 -8.86766
669999 1 107.084 186.385 133.795 0.0836287 -8.33705
626679 1 110.047 186.348 133.863 0.0734799 -8.41097
2397281 1 116.456 177.029 137.036 0.379998 -6.4684
2368959 1 110.035 183.136 136.775 0.0757156 -8.5719
2383360 1 116.483 186.438 137.041 0.438581 -8.02994
2383718 1 108.303 190.978 135.688 0.171117 -7.65059
684398 1 108.322 187.866 138.638 0.311273 -8.3656
2398012 1 154.656 192.962 138.732 0.155369 -7.13717
684534 1 158.022 196.139 139.053 0.240498 -6.86047
2425485 1 130.51 157.789 142.993 0.289558 -6.1497
713079 1 110.162 186.19 142.965 0.0546231 -8.16579
698800 1 113.136 186.174 143.204 0.168794 -7.933
2412532 1 154.467 196.053 142.051 0.120553 -6.53735
2511775 1 165.577 148.469 161.202 0.08599 -7.21316
2526176 1 162.189 151.064 162.415 0.0666871 -7.58638
2511894 1 157.768 155.278 160.622 0.0857861 -6.62637
2511773 1 158.168 151.677 165.508 0.0312466 -7.1565
798296 1 161.308 154.507 164.264 0.483445 -7.62969
2584980 1 180.018 184.783 178.298 0.0947511 -6.11267
2599019 1 177.179 176.928 183.405 0.10888 -6.37449
2643409 1 143.356 215.459 190.835 0.0811517 -7.50004
2629128 1 142.232 213.456 192.958 0.0204098 -6.94667
2672090 1 141.794 210.221 195.929 0.0975646 -6.88878
2685064 1 193.139 167.143 202.246 0.152247 -6.86969
2803242 1 120.74 245.277 228.122 0.0168418 -6.65462
2844409 1 145.165 193.421 239.015 0.541658 -6.49872
2859884 1 127.681 221.595 238.782 0.0692052 -6.3042
2931652 1 154.929 213.409 255.129 0.0427939 -7.11231
2931771 1 151.512 216.45 255.037 0.240802 -6.30335
2946051 1 151.431 212.983 258.047 0.0930939 -6.71598
3133487 1 136.972 221.623 302.641 0.071616 -6.34212
1419887 1 135.568 219.574 304.317 0.174898 -6.40493
3175962 1 120.82 202.237 309.055 0.194208 -6.30951
3233081 1 119.387 187.788 323.53 0.119143 -6.5345
3292378 1 173.846 234.283 337.134 0.554059 -6.13099
3334484 1 128.942 206.917 347.413 0.183038 -7.89659
3349004 1 129.13 210.277 347.451 0.189972 -7.7101
3349006 1 131.964 206.573 350.727 0.24083 -7.3754
3419930 1 148.183 178.512 365.048 0.0807567 -6.3403
2340397 1 106.412 192.632 127.589 0.353658 -7.39192
2353500 1 178.529 159.15 130.608 0.101487 -6.96017
655601 1 117.815 181.713 132.106 0.175755 -7.57776
655360 1 111.655 184.89 132.171 0.0517999 -8.33501
2383478 1 105.533 187.719 131.99 0.137796 -7.48798
641316 1 100.483 192.676 130.938 0.127759 -6.96389
684042 1 116.146 183.219 133.782 0.352959 -7.96418
684401 1 114.649 184.985 135.365 0.11701 -8.02588
641078 1 106.717 189.337 133.708 0.0465484 -7.91536
2369078 1 108.439 187.997 135.442 0.382829 -8.46443
2397878 1 109.894 186.383 137.093 0.0445457 -8.57538
2383239 1 111.54 184.805 138.555 0.190094 -8.51686
2397759 1 111.429 188.043 138.486 0.122274 -8.51772
698679 1 111.667 184.463 141.595 0.0786887 -8.42033
698799 1 109.835 189.497 140.116 0.149649 -7.75521
713078 1 111.471 188.009 144.351 0.111522 -7.82032
698801 1 114.972 187.837 144.598 0.159662 -7.09689
698934 1 159.462 194.546 143.324 0.552657 -6.47213
730126 1 135.338 256.068 147.922 0.152516 -6.71447
783776 1 162.61 152.651 160.158 0.207987 -7.31037
783896 1 166.123 152.97 162.496 0.0143204 -6.85999
872435 1 99.1134 211.778 181.864 0.234633 -6.02293
2629370 1 143.405 214.789 188.349 0.0396752 -7.3308
2687218 1 172.424 221.442 201.042 0.232567 -6.38549
973617 1 170.498 223.332 202.138 0.0206087 -6.83851
971584 1 191.388 169.026 203.938 0.0345394 -6.88384
1002287 1 137.169 220.61 208.749 0.714764 -6.05538
1044897 1 169.011 201.115 217.71 0.275982 -6.43111
1044894 1 158.021 204.382 220.264 0.191796 -6.40195
1088929 1 141.428 226.593 227.263 0.132398 -6.59246
2802648 1 138.526 229.535 227.194 0.229285 -7.36718
1347531 1 148.169 208.745 284.961 0.169117 -6.46232
1404882 1 119.306 202.544 300.772 0.165105 -7.43722
1433443 1 117.939 198.941 302.618 0.206056 -7.23021
1433681 1 117.683 204.25 304.026 0.218064 -7.15371
1447843 1 122.346 197.654 307.355 0.210066 -7.28821
1448201 1 115.178 205.079 307.598 0.193764 -6.3993
1621125 1 127.466 208.654 345.815 0.226048 -7.2724
1620885 1 130.416 205.241 348.811 0.347735 -7.72744
1621005 1 131.876 207.217 347.737 0.371881 -8.38336
1621126 1 132.122 210.33 347.474 0.39045 -7.31329
1663840 1 114.911 197.791 355.034 0.0881516 -6.48887
1691931 1 149.861 176.564 363.367 0.156317 -6.88734
