ITEM: TIMESTEP
86000
ITEM: NUMBER OF ATOMS
80
ITEM: BOX BOUNDS pp pp pp
0 360
0 360
0 360
ITEM: ATOMS id type x y z
682372 1 153.75 138.75 141.75
696770 1 147.75 138.75 144.75
696892 1 153.75 141.75 144.75
696893 1 156.75 141.75 144.75
711170 1 147.75 138.75 147.75
711291 1 150.75 141.75 147.75
711292 1 153.75 141.75 147.75
781258 1 171.75 90.75 162.75
781840 1 117.75 105.75 162.75
784480 1 117.75 171.75 162.75
795657 1 168.75 90.75 165.75
796239 1 114.75 105.75 165.75
928000 1 117.75 159.75 192.75
928119 1 114.75 162.75 192.75
928239 1 114.75 165.75 192.75
928360 1 117.75 168.75 192.75
942398 1 111.75 159.75 195.75
942519 1 114.75 162.75 195.75
942638 1 111.75 165.75 195.75
942639 1 114.75 165.75 195.75
942640 1 117.75 165.75 195.75
942759 1 114.75 168.75 195.75
942879 1 114.75 171.75 195.75
942880 1 117.75 171.75 195.75
943000 1 117.75 174.75 195.75
943119 1 114.75 177.75 195.75
943120 1 117.75 177.75 195.75
954419 1 174.75 99.75 198.75
957157 1 108.75 168.75 198.75
957278 1 111.75 171.75 198.75
957279 1 114.75 171.75 198.75
957399 1 114.75 174.75 198.75
986440 1 117.75 180.75 204.75
1000839 1 114.75 180.75 207.75
1000840 1 117.75 180.75 207.75
1000960 1 117.75 183.75 207.75
1001911 1 90.75 207.75 207.75
1015479 1 114.75 186.75 210.75
1015480 1 117.75 186.75 210.75
1015599 1 114.75 189.75 210.75
1072725 1 132.75 177.75 222.75
2353238 1 113.25 152.25 131.25
2367518 1 113.25 149.25 134.25
2395852 1 155.25 137.25 140.25
2395972 1 155.25 140.25 140.25
2410251 1 152.25 137.25 143.25
2410370 1 149.25 140.25 143.25
2410371 1 152.25 140.25 143.25
2410372 1 155.25 140.25 143.25
2410373 1 158.25 140.25 143.25
2410490 1 149.25 143.25 143.25
2424770 1 149.25 140.25 146.25
2424892 1 155.25 143.25 146.25
2425011 1 152.25 146.25 146.25
2439049 1 146.25 137.25 149.25
2439170 1 149.25 140.25 149.25
2439291 1 152.25 143.25 149.25
2453450 1 149.25 137.25 152.25
2453571 1 152.25 140.25 152.25
2653620 1 179.25 101.25 194.25
2655998 1 113.25 161.25 194.25
2656359 1 116.25 170.25 194.25
2656476 1 107.25 173.25 194.25
2670638 1 113.25 167.25 197.25
2670758 1 113.25 170.25 197.25
2670879 1 116.25 173.25 197.25
2683483 1 128.25 128.25 200.25
2685278 1 113.25 173.25 200.25
2697525 1 134.25 119.25 203.25
2714320 1 119.25 179.25 206.25
2714438 1 113.25 182.25 206.25
2714559 1 116.25 185.25 206.25
2714792 1 95.25 191.25 206.25
2728958 1 113.25 185.25 209.25
2728959 1 116.25 185.25 209.25
2729078 1 113.25 188.25 209.25
2743479 1 116.25 188.25 212.25
2753930 1 149.25 89.25 215.25
2843791 1 92.25 176.25 233.25
2915423 1 68.25 167.25 248.25
