ITEM: TIMESTEP
90000
ITEM: NUMBER OF ATOMS
116
ITEM: BOX BOUNDS pp pp pp
0 360
0 360
0 360
ITEM: ATOMS id type x y z
540671 1 210.75 195.75 111.75
611457 1 168.75 165.75 126.75
625737 1 168.75 162.75 129.75
669665 1 192.75 180.75 138.75
684062 1 183.75 180.75 141.75
754741 1 180.75 147.75 156.75
768660 1 177.75 135.75 159.75
783656 1 165.75 150.75 162.75
784143 1 186.75 162.75 162.75
797817 1 168.75 144.75 165.75
797820 1 177.75 144.75 165.75
797942 1 183.75 147.75 165.75
798178 1 171.75 153.75 165.75
798181 1 180.75 153.75 165.75
798543 1 186.75 162.75 165.75
812458 1 171.75 150.75 168.75
812460 1 177.75 150.75 168.75
812461 1 180.75 150.75 168.75
812576 1 165.75 153.75 168.75
812580 1 177.75 153.75 168.75
812581 1 180.75 153.75 168.75
812701 1 180.75 156.75 168.75
826140 1 177.75 132.75 171.75
826624 1 189.75 144.75 171.75
826860 1 177.75 150.75 171.75
826861 1 180.75 150.75 171.75
826980 1 177.75 153.75 171.75
826981 1 180.75 153.75 171.75
827101 1 180.75 156.75 171.75
840903 1 186.75 141.75 174.75
841018 1 171.75 144.75 174.75
841251 1 150.75 150.75 174.75
854944 1 189.75 132.75 177.75
855181 1 180.75 138.75 177.75
855900 1 177.75 156.75 177.75
869583 1 186.75 138.75 180.75
869704 1 189.75 141.75 180.75
869821 1 180.75 144.75 180.75
870302 1 183.75 156.75 180.75
870304 1 189.75 156.75 180.75
870784 1 189.75 168.75 180.75
883617 1 168.75 129.75 183.75
884099 1 174.75 141.75 183.75
884219 1 174.75 144.75 183.75
884584 1 189.75 153.75 183.75
899220 1 177.75 159.75 186.75
925747 1 198.75 102.75 192.75
972276 1 105.75 186.75 201.75
985629 1 204.75 159.75 204.75
1000595 1 102.75 174.75 207.75
1000873 1 216.75 180.75 207.75
1029314 1 219.75 171.75 213.75
1029994 1 99.75 189.75 213.75
1058110 1 207.75 171.75 219.75
1087118 1 111.75 177.75 225.75
1087354 1 99.75 183.75 225.75
1101635 1 102.75 180.75 228.75
1143989 1 84.75 159.75 237.75
1188521 1 120.75 192.75 246.75
1202318 1 111.75 177.75 249.75
1216721 1 120.75 177.75 252.75
1231243 1 126.75 180.75 255.75
2197155 1 224.25 209.25 98.25
2197277 1 230.25 212.25 98.25
2311508 1 203.25 188.25 122.25
2425374 1 161.25 155.25 146.25
2440258 1 173.25 167.25 149.25
2482503 1 188.25 143.25 158.25
2482978 1 173.25 155.25 158.25
2497378 1 173.25 155.25 161.25
2511423 1 188.25 146.25 164.25
2512019 1 176.25 161.25 164.25
2525817 1 170.25 146.25 167.25
2525823 1 188.25 146.25 167.25
2526297 1 170.25 158.25 167.25
2526300 1 179.25 158.25 167.25
2540460 1 179.25 152.25 170.25
2540580 1 179.25 155.25 170.25
2540582 1 185.25 155.25 170.25
2554621 1 182.25 146.25 173.25
2554738 1 173.25 149.25 173.25
2554740 1 179.25 149.25 173.25
2555095 1 164.25 158.25 173.25
2568897 1 170.25 143.25 176.25
2569262 1 185.25 152.25 176.25
2569263 1 188.25 152.25 176.25
2569501 1 182.25 158.25 176.25
2569619 1 176.25 161.25 176.25
2582580 1 179.25 125.25 179.25
2582822 1 185.25 131.25 179.25
2583426 1 197.25 146.25 179.25
2597460 1 179.25 137.25 182.25
2598061 1 182.25 152.25 182.25
2598182 1 185.25 155.25 182.25
2598299 1 176.25 158.25 182.25
2598300 1 179.25 158.25 182.25
2598302 1 185.25 158.25 182.25
2598422 1 185.25 161.25 182.25
2611858 1 173.25 137.25 185.25
2612343 1 188.25 149.25 185.25
2625782 1 185.25 125.25 188.25
2625905 1 194.25 128.25 188.25
2654579 1 176.25 125.25 194.25
2699800 1 119.25 176.25 203.25
2728595 1 104.25 176.25 209.25
2728632 1 215.25 176.25 209.25
2728833 1 98.25 182.25 209.25
2743233 1 98.25 182.25 212.25
2743352 1 95.25 185.25 212.25
2757275 1 104.25 173.25 215.25
2757397 1 110.25 176.25 215.25
2758237 1 110.25 197.25 215.25
2786229 1 206.25 176.25 221.25
2814320 1 239.25 158.25 227.25
2828788 1 83.25 161.25 230.25
2844395 1 104.25 191.25 233.25
