ITEM: TIMESTEP
90432
ITEM: NUMBER OF ATOMS
113
ITEM: BOX BOUNDS pp pp pp
0 360
0 360
0 360
ITEM: ATOMS id type x y z c_myKE c_myPE
568156 1 226.094 161.069 113.174 0 -6.2544
556037 1 234.42 222.924 113.177 0 -6.25474
2454160 1 114.466 154.664 149.544 0 -6.8229
2468561 1 117.722 154.794 152.8 0 -6.55191
2482493 1 159.067 139.902 157.863 0 -7.93209
2482613 1 155.846 143.116 157.87 0 -7.93304
2482734 1 159.023 143.084 157.831 0 -7.91275
2539269 1 208.886 119.598 168.69 0 -6.8275
2553549 1 209.003 116.34 171.947 0 -6.54787
899091 1 146.383 155.896 189.677 0 -8.01575
2655889 1 145.047 157.739 194.224 0 -7.34988
2642824 1 191.036 192.99 192.946 0 -6.25702
2655907 1 199.152 151.675 197.48 0 -7.39124
2655785 1 196.39 154.782 197.427 0 -7.46884
928128 1 136.864 162.373 195.863 0 -6.56632
2670065 1 196.293 151.33 200.515 0 -7.90677
2670068 1 202.431 151.402 200.795 0 -8.51615
956468 1 205.593 151.406 200.715 0 -8.606
927907 1 199.228 154.591 200.901 0 -8.41576
970870 1 208.734 151.366 203.807 0 -8.39766
2684706 1 202.441 154.54 203.957 0 -8.85348
2698988 1 205.545 154.531 203.957 0 -8.86163
999792 1 211.942 151.39 207.047 0 -8.03594
999909 1 205.625 154.484 207.058 0 -8.60461
985628 1 208.72 154.538 207.067 0 -8.85883
999910 1 211.812 154.547 207.065 0 -8.76543
2713390 1 214.954 154.539 206.915 0 -8.03852
2699226 1 199.26 157.726 207.121 0 -8.39834
2727908 1 202.399 157.657 207.094 0 -8.553
2699320 1 114.41 162.109 205.764 0 -7.06895
999793 1 215.323 151.49 210.242 0 -7.44454
2742190 1 211.889 154.654 210.222 0 -8.32378
1014429 1 205.584 157.716 210.303 0 -8.56298
2699466 1 199.222 160.693 210.113 0 -8.00024
2699347 1 202.323 160.858 210.289 0 -8.40677
2743357 1 106.645 184.623 208.762 0 -6.85478
2714558 1 106.936 187.881 208.798 0 -6.94041
2713629 1 208.685 157.748 213.475 0 -8.0226
1014545 1 196.103 161.261 213.403 0 -7.36597
1000955 1 103.5 188.002 212.137 0 -6.60642
2801669 1 79.3554 205.702 226.078 0 -6.25523
1116316 1 228.039 187.835 232.449 0 -6.25652
2871505 1 66.5706 146.315 241.993 0 -7.06704
2871417 1 170.579 146.329 244.016 0 -6.25539
2916401 1 119.272 190.189 251.982 0 -7.64193
2916402 1 120.039 192.566 251.142 0 -7.35365
2916519 1 113.991 195.887 251.901 0 -7.37882
2916521 1 119.29 196.659 251.769 0 -7.4563
2125753 1 223.244 227.696 76.4952 0 -6.25534
426566 1 259.58 226.449 82.8784 0 -6.25592
483788 1 202.16 216.891 93.694 0 -6.25459
2267938 1 173.458 179.856 106.452 0 -6.25534
582177 1 169.009 151.138 116.019 0 -6.25525
596462 1 184.978 147.954 121.154 0 -6.25606
626587 1 200.926 181.825 127.517 0 -6.25497
667486 1 131.989 122.431 135.183 0 -6.25676
756670 1 210.511 195.846 154.282 0 -6.25588
754613 1 156.262 140.32 157.446 0 -7.91936
755830 1 210.626 173.59 156.121 0 -6.52067
769134 1 160.572 141.611 159.512 0 -7.34267
2497133 1 157.545 144.621 159.514 0 -7.36093
770110 1 210.536 170.321 159.367 0 -6.81582
871475 1 98.8568 188.17 181.755 0 -6.25616
2612690 1 144.747 157.481 185.004 0 -7.70539
2626520 1 243.634 138.395 188.15 0 -6.2617
899090 1 144.75 154.456 188.001 0 -7.96957
2612571 1 147.763 154.22 188.114 0 -7.60396
899209 1 141.653 157.61 188.01 0 -8.0404
2612691 1 144.811 157.558 188.128 0 -8.62701
2612809 1 141.486 160.507 188.09 0 -7.54895
913609 1 141.648 157.777 191.226 0 -8.35835
2627090 1 144.814 157.577 191.276 0 -8.35369
913729 1 143.368 159.427 192.626 0 -7.89649
2669950 1 203.929 149.99 199.012 0 -7.6516
942189 1 200.818 153.009 199.234 0 -8.51679
942528 1 138.414 160.581 197.654 0 -6.97875
2684468 1 207.161 149.775 202.274 0 -8.0491
2699108 1 200.876 152.982 202.339 0 -8.80159
2670308 1 203.999 152.957 202.356 0 -8.8307
2684469 1 207.096 152.95 202.361 0 -8.79316
2684586 1 200.842 156.13 202.434 0 -8.52923
971669 1 77.7559 170.263 202.161 0 -6.25616
984306 1 195.728 124.256 205.35 0 -6.26227
2713509 1 207.197 152.947 205.465 0 -8.83444
970990 1 211.76 154.573 203.955 0 -8.53451
971200 1 112.86 157.541 204.21 0 -6.86553
970988 1 197.658 156.128 205.525 0 -8.03377
971107 1 200.84 156.117 205.523 0 -8.80302
2684707 1 204.01 156.117 205.56 0 -8.60898
971321 1 116.267 160.675 203.975 0 -6.70007
985377 1 167.055 151.114 207.294 0 -6.26255
956828 1 207.114 156.139 208.642 0 -8.60923
985631 1 210.24 156.128 208.68 0 -8.784
2727906 1 200.929 159.227 208.664 0 -8.47404
2713627 1 203.984 159.225 208.692 0 -8.59949
999673 1 216.842 149.77 211.921 0 -6.71156
2713508 1 207.206 156.158 211.798 0 -8.7835
1014431 1 210.304 156.262 211.841 0 -8.37875
1014430 1 204.036 159.309 211.856 0 -8.36147
985750 1 207.062 159.327 211.889 0 -8.36957
2714437 1 105.211 186.291 210.652 0 -7.59083
2728145 1 194.447 162.729 215.027 0 -6.86586
1071796 1 229.593 151.156 226.417 0 -6.26459
1086050 1 144.731 147.913 229.64 0 -6.25446
1113060 1 178.571 100.064 234.079 0 -6.25479
1129105 1 65.1806 144.928 237.096 0 -7.24663
1143506 1 67.979 144.584 240.408 0 -7.40146
1143625 1 64.8402 147.726 240.409 0 -7.39491
1129394 1 221.301 151.126 239.2 0 -6.26167
1158282 1 119.212 154.302 243.655 0 -6.25531
2930801 1 119.338 192.229 253.733 0 -8.09472
1188520 1 115.841 194.083 251.785 0 -8.07922
2930802 1 119.482 194.194 255.479 0 -8.02387
