ITEM: TIMESTEP
90000
ITEM: NUMBER OF ATOMS
116
ITEM: BOX BOUNDS pp pp pp
0 360
0 360
0 360
ITEM: ATOMS id type x y z c_myKE c_myPE
2267938 1 173.91 180.152 106.359 0.279464 -6.58425
568156 1 225.973 161.184 113.132 0.0181166 -7.22437
556037 1 234.37 223.188 113.364 0.101673 -6.6041
2310176 1 167.871 152.817 117.571 0.0338871 -7.00583
2454160 1 114.739 154.957 149.549 0.31405 -7.01962
2468561 1 117.61 154.616 152.499 0.108904 -6.88476
2469429 1 209.132 175.382 154.967 0.0716994 -6.28579
2482493 1 159.135 140.075 157.813 0.192333 -7.59546
2482613 1 155.921 143.164 157.901 0.0932895 -7.98302
2539269 1 208.849 119.749 168.901 0.13095 -7.00207
2553549 1 208.864 116.44 172.068 0.0591429 -6.09949
2554746 1 200.653 149.508 173.73 0.21993 -5.72107
884690 1 146.274 156.155 186.24 0.147356 -8.08664
2612571 1 148.051 154.583 187.997 0.0692716 -6.62129
913610 1 142.886 158.955 186.562 0.0864888 -7.67783
2612691 1 144.87 157.83 188.044 0.181498 -8.4691
2627209 1 143.295 159.231 189.706 0.172444 -8.39146
928250 1 145.112 160.897 191.004 0.145391 -7.57011
2655889 1 145.097 158.089 193.905 0.215905 -7.38661
2655907 1 199.081 151.542 197.559 0.0374434 -7.69759
2655785 1 196.112 154.653 197.58 0.17834 -7.67898
2670189 1 202.662 154.534 197.625 0.0649196 -8.03286
928128 1 136.47 162.305 196.33 0.105763 -6.98253
2670065 1 196.357 151.372 200.279 0.0562457 -7.4471
2670068 1 202.222 151.444 200.762 0.352432 -8.09353
956468 1 205.65 151.483 200.748 0.281452 -8.40907
928028 1 202.585 154.707 200.789 0.107971 -8.20629
2670407 1 137.076 159.261 199.403 0.151686 -7.07044
970870 1 208.919 151.285 203.835 0.607017 -8.02202
2698988 1 205.736 154.54 203.851 0.0647011 -8.61322
970990 1 212.093 154.522 203.929 0.364858 -8.28388
2670427 1 205.672 157.696 203.959 0.142548 -8.44689
2684921 1 117.49 162.468 202.741 0.042649 -6.5662
985628 1 208.852 154.481 207.239 0.289185 -8.58319
1000149 1 208.828 157.626 207.132 0.0464521 -8.41124
2699320 1 114.506 162.391 205.687 0.310422 -7.33152
2699229 1 202.596 160.755 207.106 0.147157 -7.96799
2699228 1 205.54 160.93 207.079 0.0830009 -8.44572
999793 1 215.337 151.511 210.109 0.161194 -7.07962
2713749 1 208.799 157.602 210.209 0.266841 -8.58338
2699347 1 202.547 161.131 210.395 0.0284806 -8.07768
2742548 1 205.746 160.881 210.235 0.149012 -8.03235
2743357 1 106.671 184.534 208.854 0.340318 -6.806
1015477 1 106.648 184.724 211.933 0.141647 -7.34932
1000955 1 103.8 188.062 212.009 0.253897 -6.77159
2728145 1 194.072 162.434 215.175 0.0750209 -6.87887
2801669 1 79.4007 205.863 226.155 0.119357 -6.27987
2799650 1 146.217 149.065 228.237 0.147546 -7.43669
1116316 1 228.591 188.067 232.444 0.125486 -6.30683
2857105 1 66.379 146.402 238.573 0.0593644 -7.56431
2871505 1 66.5233 146.445 242.056 0.391846 -7.54017
2871417 1 170.804 146.367 244.273 0.188448 -6.73446
2916401 1 119.461 190.342 251.848 0.220013 -7.75063
2916402 1 120.144 192.71 251.2 0.282673 -7.10492
2916519 1 114.095 195.996 251.891 0.270084 -7.31037
2125753 1 223.273 227.673 76.4501 0.227166 -6.71052
426566 1 259.483 226.648 83.0528 0.034749 -6.80266
483788 1 202.301 216.604 93.247 0.114866 -5.48162
596462 1 185.028 147.958 121.531 0.0497008 -6.60473
626587 1 200.943 181.927 127.535 0.320648 -5.90639
667486 1 132.164 122.649 134.85 0.0213937 -6.09363
756670 1 210.447 195.999 154.511 0.37696 -6.57714
754613 1 156.297 140.494 157.513 0.12468 -7.52359
2482734 1 159.017 143.557 157.538 0.165236 -7.04127
769134 1 160.81 141.881 159.552 0.0940417 -7.20383
2497133 1 157.561 145.116 159.514 0.0618667 -7.26795
770110 1 210.459 170.257 159.242 0.278782 -6.68411
871475 1 98.7711 188.079 181.887 0.0305437 -6.27452
2612690 1 144.479 157.597 184.755 0.280009 -8.08336
2626520 1 243.549 138.642 188.309 0.337516 -6.54804
899091 1 146.708 156.135 189.51 0.103791 -7.90821
2612809 1 141.858 160.709 188.143 0.341501 -7.61938
2627090 1 144.826 157.737 191.235 0.0712003 -8.17694
914825 1 192.303 191.691 191.451 0.218486 -6.70869
2669950 1 203.872 149.992 199.159 0.0980569 -7.65298
2670309 1 200.89 156.188 199.305 0.0045458 -8.38933
2684468 1 207.144 149.931 202.2 0.18807 -7.86376
2670308 1 203.978 153.012 202.448 0.114813 -8.56265
2684469 1 207.188 152.953 202.328 0.0282714 -8.75525
2684586 1 200.968 156.095 202.397 0.0240723 -8.16607
956708 1 204.071 156.042 202.412 0.0467312 -8.5859
971669 1 77.6966 170.576 202.283 0.109219 -6.47091
984306 1 195.859 124.357 205.611 0.450756 -6.19797
2713509 1 207.247 153.015 205.489 0.181965 -8.50716
2684589 1 213.63 152.877 205.587 0.215331 -8.38604
971200 1 112.915 157.551 204.048 0.124587 -6.97427
970988 1 197.878 156.01 205.632 0.0429541 -7.44747
971107 1 200.897 156.097 205.478 0.120971 -8.51042
942308 1 207.216 156.299 205.666 0.397598 -8.42077
970992 1 216.67 156.262 205.55 0.0521959 -8.20323
985627 1 200.987 159.239 205.574 0.0199256 -8.47512
1000148 1 204.089 159.303 205.475 0.00658851 -8.17512
2670307 1 207.181 159.31 205.491 0.223035 -8.62558
985377 1 166.815 151.254 206.958 0.261714 -5.81288
971110 1 210.4 153.175 208.784 0.0949042 -8.43336
985631 1 210.458 155.933 208.656 0.270736 -8.69184
2713391 1 213.454 156.197 208.634 0.108953 -8.2
1000269 1 207.155 159.224 208.39 0.172767 -8.30105
1000147 1 201.062 162.303 208.686 0.0622564 -8.05299
999673 1 216.959 149.871 211.757 0.107638 -6.66965
1014431 1 210.505 156.131 211.935 0.1537 -8.53927
985750 1 207.422 159.157 211.787 0.191836 -8.04288
1029067 1 197.65 162.417 211.922 0.297487 -6.76408
2728838 1 108.214 186.288 210.261 0.0590029 -7.17422
1028709 1 207.481 156.146 214.894 0.0910555 -7.50439
1071796 1 229.61 151.276 226.43 0.1508 -6.06527
1113060 1 178.478 99.9356 234.218 0.0296747 -6.48616
1143506 1 68.1682 144.887 240.305 0.158782 -6.66107
1143625 1 64.9385 147.836 240.264 0.135917 -7.65405
1129394 1 221.271 151.348 239.402 0.281675 -6.94846
1158282 1 119.335 154.399 243.649 0.267744 -6.51181
1188521 1 118.092 194.098 250.176 0.114406 -7.98195
1188642 1 121.147 197.674 250.157 0.132145 -7.9701
1202922 1 121.196 194.208 253.413 0.0110666 -7.85792
1203041 1 117.815 197.833 253.584 0.200923 -7.81184
2930802 1 119.602 194.348 255.58 0.0469679 -7.88592
