ITEM: TIMESTEP
86194
ITEM: NUMBER OF ATOMS
93
ITEM: BOX BOUNDS pp pp pp
0 360
0 360
0 360
ITEM: ATOMS id type x y z
726876 1 105.75 171.75 150.75
913128 1 141.75 147.75 189.75
928843 1 126.75 180.75 192.75
928961 1 120.75 183.75 192.75
941568 1 141.75 138.75 195.75
941569 1 144.75 138.75 195.75
943122 1 123.75 177.75 195.75
943241 1 120.75 180.75 195.75
943242 1 123.75 180.75 195.75
943362 1 123.75 183.75 195.75
956088 1 141.75 141.75 198.75
957642 1 123.75 180.75 198.75
970717 1 108.75 147.75 201.75
972040 1 117.75 180.75 201.75
985237 1 108.75 150.75 204.75
986440 1 117.75 180.75 204.75
1000719 1 114.75 177.75 207.75
1000720 1 117.75 177.75 207.75
1011520 1 117.75 87.75 210.75
1013331 1 150.75 132.75 210.75
1015000 1 117.75 174.75 210.75
1015119 1 114.75 177.75 210.75
1015357 1 108.75 183.75 210.75
1026663 1 186.75 105.75 213.75
1027732 1 153.75 132.75 213.75
1027851 1 150.75 135.75 213.75
1028345 1 192.75 147.75 213.75
1029399 1 114.75 174.75 213.75
1029519 1 114.75 177.75 213.75
1029638 1 111.75 180.75 213.75
1041891 1 150.75 126.75 216.75
1042010 1 147.75 129.75 216.75
1056293 1 156.75 126.75 219.75
1070573 1 156.75 123.75 222.75
1070692 1 153.75 126.75 222.75
1070811 1 150.75 129.75 222.75
1085091 1 150.75 126.75 225.75
1131159 1 114.75 198.75 234.75
1145558 1 111.75 198.75 237.75
1145674 1 99.75 201.75 237.75
1145679 1 114.75 201.75 237.75
1160079 1 114.75 201.75 240.75
1160199 1 114.75 204.75 240.75
1160200 1 117.75 204.75 240.75
1174599 1 114.75 204.75 243.75
1201383 1 186.75 153.75 249.75
1243612 1 153.75 129.75 258.75
1243731 1 150.75 132.75 258.75
1374994 1 99.75 174.75 285.75
2453206 1 137.25 131.25 152.25
2552336 1 167.25 89.25 173.25
2642442 1 125.25 182.25 191.25
2655048 1 143.25 137.25 194.25
2656603 1 128.25 176.25 194.25
2656722 1 125.25 179.25 194.25
2656842 1 125.25 182.25 194.25
2669568 1 143.25 140.25 197.25
2671002 1 125.25 176.25 197.25
2671123 1 128.25 179.25 197.25
2683968 1 143.25 140.25 200.25
2685403 1 128.25 176.25 200.25
2699920 1 119.25 179.25 203.25
2714319 1 116.25 179.25 206.25
2714320 1 119.25 179.25 206.25
2714459 1 176.25 182.25 206.25
2715891 1 152.25 218.25 206.25
2726810 1 149.25 131.25 209.25
2728599 1 116.25 176.25 209.25
2728718 1 113.25 179.25 209.25
2728837 1 110.25 182.25 209.25
2741209 1 146.25 131.25 212.25
2742999 1 116.25 176.25 212.25
2743118 1 113.25 179.25 212.25
2743237 1 110.25 182.25 212.25
2743238 1 113.25 182.25 212.25
2755612 1 155.25 131.25 215.25
2757279 1 116.25 173.25 215.25
2769162 1 125.25 110.25 218.25
2769771 1 152.25 125.25 218.25
2770011 1 152.25 131.25 218.25
2770495 1 164.25 143.25 218.25
2784051 1 152.25 122.25 221.25
2784170 1 149.25 125.25 221.25
2784172 1 155.25 125.25 221.25
2784290 1 149.25 128.25 221.25
2801543 1 68.25 200.25 224.25
2842728 1 143.25 149.25 233.25
2855822 1 185.25 116.25 236.25
2873678 1 113.25 203.25 239.25
2888198 1 113.25 206.25 242.25
2912685 1 134.25 98.25 248.25
2928867 1 80.25 143.25 251.25
3030526 1 137.25 164.25 272.25
