ITEM: TIMESTEP
84217
ITEM: NUMBER OF ATOMS
92
ITEM: BOX BOUNDS pp pp pp
0 360
0 360
0 360
ITEM: ATOMS id type x y z c_myKE c_myPE
2297212 1 154.704 192.969 116.385 0 -6.25639
2454029 1 78.0263 152.913 151.57 0 -6.54854
2466638 1 108.217 101.641 154.549 0 -7.04622
770202 1 119.645 177.038 161.037 0 -6.25413
2553787 1 202.55 120.893 173.792 0 -6.25648
2540571 1 151.463 157.589 174.707 0 -7.36614
2583869 1 81.3662 157.88 178.242 0 -6.25705
2583187 1 200.573 138.703 179.958 0 -6.56875
2599720 1 114.627 194.34 183.508 0 -6.64051
926680 1 113.102 122.682 190.899 0 -6.46241
2640280 1 116.522 125.626 191.065 0 -7.36568
2626017 1 167.338 125.798 190.969 0 -6.66489
898257 1 168.607 133.526 189.99 0 -7.59559
912538 1 167.53 129 194.396 0 -7.9254
2640418 1 173.762 129.024 194.365 0 -8.36341
927057 1 170.578 132.182 194.432 0 -8.43637
2668981 1 183.425 123.123 197.452 0 -7.45356
2669100 1 180.074 125.999 197.607 0 -8.40814
2669101 1 183.209 126.091 197.533 0 -7.94813
2669219 1 176.906 129.079 197.548 0 -8.78724
2669220 1 179.943 129.075 197.562 0 -8.71901
2683736 1 167.508 132.278 197.57 0 -7.59095
2669459 1 173.682 132.204 197.637 0 -8.61924
2683620 1 180.013 129.139 200.802 0 -8.06642
1026783 1 187.693 103.789 212.43 0 -6.73994
2754661 1 183.722 103.772 216.408 0 -6.73922
1041303 1 187.688 107.745 216.398 0 -6.7674
2741818 1 171.899 143.148 215.439 0 -7.05897
1040210 1 145.075 76.2046 219.651 0 -6.86378
2768088 1 141.824 79.4918 219.651 0 -7.097
2828440 1 116.279 149.427 232.634 0 -6.56555
2828208 1 141.954 145.151 234.4 0 -6.25537
2842842 1 122.926 151.579 235.605 0 -7.60494
2857122 1 122.924 148.215 238.915 0 -6.55624
2901396 1 103.69 177.015 250.35 0 -6.25292
2942905 1 66.495 130.386 259.925 0 -6.82799
1287635 1 97.2879 149.543 269.489 0 -6.25638
3058361 1 117.823 138.566 285.555 0 -6.53993
652626 1 199.006 111.633 131.981 0 -6.82006
2395027 1 202.26 111.764 135.237 0 -6.54987
668460 1 178.633 147.997 133.896 0 -6.25129
695668 1 77.7848 105.244 143.503 0 -6.25429
740549 1 79.7758 151.156 150.032 0 -6.83758
2439864 1 63.839 156.351 149.943 0 -6.29074
2468784 1 66.9395 159.43 151.161 0 -7.37707
755186 1 66.9432 157.571 153.022 0 -7.38583
2468904 1 63.8583 160.659 154.251 0 -6.28213
753158 1 106.454 103.387 156.045 0 -6.75685
753159 1 109.762 103.421 156.413 0 -6.9193
2467701 1 54.3333 130.677 156.182 0 -6.54407
2482221 1 54.2186 133.936 159.437 0 -6.82518
812112 1 216.862 138.311 168.907 0 -6.54826
826513 1 220.107 138.441 172.174 0 -6.81983
840877 1 106.385 137.542 175.528 0 -6.7945
840996 1 102.473 141.463 175.524 0 -6.76522
870411 1 149.574 157.682 176.484 0 -7.3021
855890 1 149.718 160.258 176.949 0 -6.64133
855277 1 104.96 140.037 178.767 0 -7.05511
884571 1 149.879 153.637 179.904 0 -6.86989
869708 1 202.094 140.443 181.715 0 -6.8895
885878 1 108.368 188.078 182.88 0 -6.63989
886119 1 111.498 191.213 183.187 0 -7.11586
885300 1 178.674 170.404 184.957 0 -6.25089
2654801 1 118.456 127.366 191.148 0 -7.32889
927058 1 170.612 128.938 191.413 0 -7.7636
2654939 1 172.117 130.657 192.853 0 -8.42483
941101 1 181.726 124.568 195.83 0 -7.93139
2654818 1 175.459 127.45 195.93 0 -8.39008
941220 1 178.439 127.456 195.942 0 -8.37035
2640658 1 173.646 132.186 194.463 0 -8.75714
941219 1 175.259 130.629 195.995 0 -8.77998
955858 1 172.087 133.754 195.994 0 -8.38215
955621 1 181.624 127.666 199.162 0 -8.28078
955739 1 175.363 130.675 199.127 0 -8.75543
955740 1 178.485 130.738 199.131 0 -8.60326
970257 1 168.995 134.025 198.971 0 -7.34866
2683859 1 175.405 133.84 199.224 0 -7.95113
2683618 1 175.349 130.761 202.236 0 -7.9612
999034 1 95.6929 132.02 208.536 0 -6.25025
986941 1 179.898 194.607 207.302 0 -6.25267
2739407 1 138.462 79.4761 216.837 0 -6.82317
1025927 1 135.223 82.879 216.903 0 -6.97243
1042618 1 172.29 143.675 218.023 0 -7.61322
1040328 1 138.374 82.8726 220.105 0 -7.4956
1057017 1 168.978 143.643 221.386 0 -6.5586
1086871 1 84.1864 170.286 227.676 0 -6.25414
1100561 1 118.047 151.049 230.864 0 -6.81769
1100336 1 165.908 143.514 232.794 0 -6.26037
1129362 1 121.054 153.136 237.396 0 -6.58162
1170668 1 204.115 100.118 246.815 0 -6.25391
1215025 1 64.9138 132.157 258.154 0 -6.5419
3044080 1 116.054 140.338 283.975 0 -6.82695
