ITEM: TIMESTEP
84000
ITEM: NUMBER OF ATOMS
91
ITEM: BOX BOUNDS pp pp pp
0 360
0 360
0 360
ITEM: ATOMS id type x y z
697009 1 144.75 144.75 144.75
726053 1 156.75 150.75 150.75
740185 1 72.75 144.75 153.75
740207 1 138.75 144.75 153.75
740670 1 87.75 156.75 153.75
740785 1 72.75 159.75 153.75
754733 1 156.75 147.75 156.75
754970 1 147.75 153.75 156.75
769023 1 186.75 144.75 159.75
770921 1 120.75 192.75 159.75
783172 1 153.75 138.75 162.75
798048 1 141.75 150.75 165.75
798529 1 144.75 162.75 165.75
812456 1 165.75 150.75 168.75
812457 1 168.75 150.75 168.75
812576 1 165.75 153.75 168.75
826617 1 168.75 144.75 171.75
826737 1 168.75 147.75 171.75
841019 1 174.75 144.75 174.75
842560 1 117.75 183.75 174.75
854938 1 171.75 132.75 177.75
869430 1 87.75 135.75 180.75
870514 1 99.75 162.75 180.75
871363 1 126.75 183.75 180.75
899441 1 120.75 165.75 186.75
899926 1 135.75 177.75 186.75
900046 1 135.75 180.75 186.75
913959 1 114.75 168.75 189.75
913960 1 117.75 168.75 189.75
914320 1 117.75 177.75 189.75
914440 1 117.75 180.75 189.75
955251 1 150.75 120.75 198.75
957882 1 123.75 186.75 198.75
1029160 1 117.75 168.75 213.75
1055701 1 180.75 111.75 219.75
1069739 1 174.75 102.75 222.75
1083892 1 153.75 96.75 225.75
1084500 1 177.75 111.75 225.75
1100319 1 114.75 147.75 228.75
1113298 1 171.75 111.75 231.75
1142336 1 165.75 117.75 237.75
1156138 1 171.75 102.75 240.75
1244558 1 111.75 153.75 258.75
1258594 1 99.75 144.75 261.75
2424507 1 80.25 134.25 146.25
2424767 1 140.25 140.25 146.25
2439047 1 140.25 137.25 149.25
2439287 1 140.25 143.25 149.25
2453932 1 155.25 149.25 152.25
2454168 1 143.25 155.25 152.25
2455838 1 113.25 197.25 152.25
2468067 1 80.25 143.25 155.25
2468188 1 83.25 146.25 155.25
2482861 1 182.25 152.25 158.25
2498921 1 122.25 194.25 161.25
2510668 1 83.25 128.25 164.25
2511537 1 170.25 149.25 164.25
2526057 1 170.25 152.25 167.25
2527722 1 125.25 194.25 167.25
2540216 1 167.25 146.25 170.25
2540563 1 128.25 155.25 170.25
2554728 1 143.25 149.25 173.25
2568029 1 86.25 122.25 176.25
2569961 1 122.25 170.25 176.25
2570202 1 125.25 176.25 176.25
2583885 1 134.25 158.25 179.25
2584014 1 161.25 161.25 179.25
2597701 1 182.25 143.25 182.25
2598522 1 125.25 164.25 182.25
2598881 1 122.25 173.25 182.25
2613163 1 128.25 170.25 185.25
2627803 1 128.25 176.25 188.25
2684557 1 110.25 155.25 200.25
2684920 1 119.25 164.25 200.25
2711090 1 149.25 98.25 206.25
2740366 1 137.25 110.25 212.25
2768930 1 149.25 104.25 218.25
2769287 1 140.25 113.25 218.25
2783463 1 188.25 107.25 221.25
2798220 1 179.25 116.25 224.25
2800476 1 107.25 173.25 224.25
2811770 1 149.25 95.25 227.25
2812132 1 155.25 104.25 227.25
2813799 1 116.25 146.25 227.25
2826893 1 158.25 113.25 230.25
2841300 1 179.25 113.25 233.25
2855938 1 173.25 119.25 236.25
2943282 1 125.25 143.25 254.25
2957553 1 98.25 140.25 257.25
2957794 1 101.25 146.25 257.25
2972794 1 101.25 161.25 260.25
