ITEM: TIMESTEP
93611
ITEM: NUMBER OF ATOMS
66
ITEM: BOX BOUNDS pp pp pp
0 360
0 360
0 360
ITEM: ATOMS id type x y z c_myKE c_myPE
598260 1 178.24 199.299 119.533 0 -6.25466
2397300 1 180.427 171.931 136.805 0 -7.01291
2411700 1 180.187 171.722 139.815 0 -7.17579
2511165 1 132.179 136.634 164.043 0 -6.54211
2512475 1 98.3694 171.823 164.22 0 -6.82646
2585936 1 165.324 210.61 178.371 0 -7.85229
2585937 1 167.224 212.339 178.452 0 -7.2908
2660341 1 184.619 273.888 194.149 0 -6.25615
2656258 1 171.835 167.372 196.753 0 -7.41895
2685287 1 136.778 171.825 202.485 0 -6.25385
2685887 1 138.722 187.781 202.478 0 -6.25513
2728026 1 196.143 159.065 212.05 0 -6.25376
2760543 1 187.689 254.75 222.887 0 -7.24562
1076101 1 184.503 267.534 222.795 0 -7.20392
1061942 1 181.491 273.888 222.8 0 -7.83274
2804221 1 184.753 277.234 222.782 0 -6.61145
2791505 1 194.157 317.316 222.878 0 -6.25433
1090381 1 184.634 261.249 226.178 0 -7.3106
1047423 1 181.48 270.934 226.336 0 -7.44488
2805053 1 157.695 292.919 226.218 0 -6.54425
1061340 1 184.644 257.883 229.098 0 -7.91183
2833386 1 199.493 280.338 229.276 0 -7.00558
1076829 1 202.578 283.404 229.257 0 -7.00587
1134060 1 171.818 273.879 232.389 0 -7.58196
1119779 1 175.152 277.205 232.345 0 -6.6289
1120024 1 199.411 283.565 232.619 0 -6.61391
2847777 1 171.787 277.207 235.712 0 -6.58572
2887850 1 146.472 199.426 247.135 0 -7.26544
2902129 1 143.077 196.122 250.11 0 -7.09759
2916410 1 146.419 193.018 253.488 0 -6.55979
2919080 1 243.985 261.143 253.524 0 -6.25319
437209 1 143.5 127.541 84.1096 0 -6.2548
2210453 1 157.508 186.196 95.6156 0 -6.2544
2368380 1 186.366 172.251 133.716 0 -6.67663
669543 1 188.081 176.531 135.262 0 -6.48153
2382781 1 183.107 172.334 137.008 0 -7.68295
2469169 1 146.748 169.054 153.093 0 -6.2835
770212 1 149.835 172.138 154.322 0 -7.37212
2483691 1 149.837 170.278 156.179 0 -7.37341
2469291 1 147.978 172.137 156.182 0 -7.37155
784595 1 96.7867 173.594 162.45 0 -6.54245
797686 1 133.949 138.215 165.813 0 -6.8282
857936 1 163.594 208.714 178.286 0 -7.27818
872331 1 147.932 210.454 179.787 0 -6.25231
901381 1 179.836 216.823 184.922 0 -6.25566
957059 1 173.577 165.711 197.902 0 -6.74692
957178 1 171.899 168.656 201.079 0 -7.0265
2803981 1 186.378 259.618 224.438 0 -8.02279
2804101 1 182.901 269.281 224.697 0 -7.34442
1047541 1 179.759 272.398 224.598 0 -7.86091
2789699 1 183.06 272.188 224.492 0 -7.80801
1062655 1 160.859 293.493 223.055 0 -6.54446
1089915 1 226.44 249.975 227.641 0 -6.25456
1047301 1 186.446 256.454 227.669 0 -7.80723
2818142 1 186.341 259.595 227.636 0 -7.86808
2775065 1 189.442 259.655 227.669 0 -7.51852
2818383 1 186.277 256.279 230.613 0 -7.42151
1117875 1 224.498 229.598 235.967 0 -6.2554
1120626 1 197.687 300.956 235.947 0 -6.54526
1147861 1 176.639 256.379 240.415 0 -6.2727
1147978 1 172.322 261.47 240.427 0 -6.34261
2848387 1 200.927 301.066 239.182 0 -6.82895
1174250 1 144.824 197.933 248.66 0 -7.59385
1174251 1 147.962 197.726 248.699 0 -7.37815
1188650 1 144.898 197.569 251.963 0 -7.83371
1204149 1 205.352 224.462 255.107 0 -6.25486
