ITEM: TIMESTEP
96000
ITEM: NUMBER OF ATOMS
129
ITEM: BOX BOUNDS pp pp pp
0 360
0 360
0 360
ITEM: ATOMS id type x y z
596327 1 138.75 147.75 123.75
755817 1 168.75 174.75 156.75
770097 1 168.75 171.75 159.75
784500 1 177.75 171.75 162.75
826497 1 168.75 141.75 171.75
970997 1 228.75 153.75 201.75
971352 1 213.75 162.75 201.75
971472 1 213.75 165.75 201.75
971473 1 216.75 165.75 201.75
971714 1 219.75 171.75 201.75
985751 1 210.75 162.75 204.75
985870 1 207.75 165.75 204.75
985871 1 210.75 165.75 204.75
985991 1 210.75 168.75 204.75
985992 1 213.75 168.75 204.75
985993 1 216.75 168.75 204.75
985994 1 219.75 168.75 204.75
986113 1 216.75 171.75 204.75
986114 1 219.75 171.75 204.75
986235 1 222.75 174.75 204.75
1000150 1 207.75 162.75 207.75
1000391 1 210.75 168.75 207.75
1000512 1 213.75 171.75 207.75
1000633 1 216.75 174.75 207.75
1000754 1 219.75 177.75 207.75
1013264 1 309.75 129.75 210.75
1015154 1 219.75 177.75 210.75
1015500 1 177.75 186.75 210.75
1071192 1 213.75 138.75 222.75
1144408 1 261.75 168.75 237.75
1144526 1 255.75 171.75 237.75
1158690 1 267.75 165.75 240.75
1158925 1 252.75 171.75 240.75
1158926 1 255.75 171.75 240.75
1158927 1 258.75 171.75 240.75
1173090 1 267.75 165.75 243.75
1173209 1 264.75 168.75 243.75
1173327 1 258.75 171.75 243.75
1173328 1 261.75 171.75 243.75
1173445 1 252.75 174.75 243.75
1187254 1 279.75 159.75 246.75
1187374 1 279.75 162.75 246.75
1187375 1 282.75 162.75 246.75
1187493 1 276.75 165.75 246.75
1187609 1 264.75 168.75 246.75
1187610 1 267.75 168.75 246.75
1187727 1 258.75 171.75 246.75
1187728 1 261.75 171.75 246.75
1187846 1 255.75 174.75 246.75
1201655 1 282.75 159.75 249.75
1201774 1 279.75 162.75 249.75
1202010 1 267.75 168.75 249.75
1202011 1 270.75 168.75 249.75
1202128 1 261.75 171.75 249.75
1202129 1 264.75 171.75 249.75
1202247 1 258.75 174.75 249.75
1202248 1 261.75 174.75 249.75
1216410 1 267.75 168.75 252.75
1216411 1 270.75 168.75 252.75
1216529 1 264.75 171.75 252.75
1216647 1 258.75 174.75 252.75
1230811 1 270.75 168.75 255.75
1273659 1 294.75 159.75 264.75
1361981 1 300.75 207.75 282.75
2309345 1 194.25 134.25 122.25
2453822 1 185.25 146.25 152.25
2469298 1 173.25 173.25 155.25
2483578 1 173.25 170.25 158.25
2583310 1 209.25 143.25 179.25
2684952 1 215.25 164.25 200.25
2685927 1 260.25 188.25 200.25
2698997 1 230.25 155.25 203.25
2699231 1 212.25 161.25 203.25
2699351 1 212.25 164.25 203.25
2699471 1 212.25 167.25 203.25
2699472 1 215.25 167.25 203.25
2699473 1 218.25 167.25 203.25
2699714 1 221.25 173.25 203.25
2700171 1 152.25 185.25 203.25
2713870 1 209.25 167.25 206.25
2713991 1 212.25 170.25 206.25
2713992 1 215.25 170.25 206.25
2714112 1 215.25 173.25 206.25
2714113 1 218.25 173.25 206.25
2714114 1 221.25 173.25 206.25
2714233 1 218.25 176.25 206.25
2728512 1 215.25 173.25 209.25
2728633 1 218.25 176.25 209.25
2728754 1 221.25 179.25 209.25
2769789 1 206.25 125.25 218.25
2772303 1 188.25 188.25 218.25
2784671 1 212.25 137.25 221.25
2857388 1 203.25 155.25 236.25
2858007 1 260.25 170.25 236.25
2872406 1 257.25 170.25 239.25
2872407 1 260.25 170.25 239.25
2886689 1 266.25 167.25 242.25
2886808 1 263.25 170.25 242.25
2886925 1 254.25 173.25 242.25
2886926 1 257.25 173.25 242.25
2901089 1 266.25 167.25 245.25
2901090 1 269.25 167.25 245.25
2901208 1 263.25 170.25 245.25
2901325 1 254.25 173.25 245.25
2901326 1 257.25 173.25 245.25
2915490 1 269.25 167.25 248.25
2915608 1 263.25 170.25 248.25
2915609 1 266.25 170.25 248.25
2915726 1 257.25 173.25 248.25
2915727 1 260.25 173.25 248.25
2916564 1 251.25 194.25 248.25
2916683 1 248.25 197.25 248.25
2917301 1 302.25 212.25 248.25
2929535 1 284.25 158.25 251.25
2929652 1 275.25 161.25 251.25
2929773 1 278.25 164.25 251.25
2930009 1 266.25 170.25 251.25
2930128 1 263.25 173.25 251.25
2931700 1 299.25 212.25 251.25
2944409 1 266.25 170.25 254.25
2944410 1 269.25 170.25 254.25
2958691 1 272.25 167.25 257.25
2985930 1 269.25 128.25 263.25
2987138 1 293.25 158.25 263.25
2987258 1 293.25 161.25 263.25
3000450 1 269.25 131.25 266.25
3016906 1 317.25 182.25 269.25
3031305 1 314.25 182.25 272.25
3031426 1 317.25 185.25 272.25
