ITEM: TIMESTEP
85224
ITEM: NUMBER OF ATOMS
51
ITEM: BOX BOUNDS pp pp pp
0 360
0 360
0 360
ITEM: ATOMS id type x y z
409497 1 168.75 156.75 84.75
438300 1 177.75 156.75 90.75
438539 1 174.75 162.75 90.75
466980 1 177.75 153.75 96.75
467223 1 186.75 159.75 96.75
467462 1 183.75 165.75 96.75
481502 1 183.75 156.75 99.75
553156 1 225.75 147.75 114.75
554339 1 174.75 177.75 114.75
597311 1 210.75 171.75 123.75
697009 1 144.75 144.75 144.75
697251 1 150.75 150.75 144.75
697253 1 156.75 150.75 144.75
711653 1 156.75 150.75 147.75
711774 1 159.75 153.75 147.75
711894 1 159.75 156.75 147.75
755939 1 174.75 177.75 156.75
784503 1 186.75 171.75 162.75
784976 1 165.75 183.75 162.75
784977 1 168.75 183.75 162.75
799384 1 189.75 183.75 165.75
813293 1 156.75 171.75 168.75
813543 1 186.75 177.75 168.75
827943 1 186.75 177.75 171.75
841978 1 171.75 168.75 174.75
857458 1 171.75 195.75 177.75
901377 1 168.75 213.75 186.75
915177 1 168.75 198.75 189.75
944697 1 168.75 216.75 195.75
957302 1 183.75 171.75 198.75
972778 1 171.75 198.75 201.75
1016223 1 186.75 204.75 210.75
1029901 1 180.75 186.75 213.75
1059183 1 186.75 198.75 219.75
2151898 1 173.25 158.25 89.25
2180818 1 173.25 161.25 95.25
2181182 1 185.25 170.25 95.25
2239020 1 179.25 176.25 107.25
2239493 1 158.25 188.25 107.25
2252578 1 173.25 155.25 110.25
2512623 1 188.25 176.25 164.25
2555216 1 167.25 161.25 173.25
2598176 1 167.25 155.25 182.25
2599979 1 176.25 200.25 182.25
2612576 1 167.25 155.25 185.25
2613897 1 170.25 188.25 185.25
2643183 1 188.25 200.25 191.25
2656976 1 167.25 185.25 194.25
2657335 1 164.25 194.25 194.25
2771827 1 200.25 176.25 218.25
2830264 1 191.25 197.25 230.25
