ITEM: TIMESTEP
84459
ITEM: NUMBER OF ATOMS
105
ITEM: BOX BOUNDS pp pp pp
0 360
0 360
0 360
ITEM: ATOMS id type x y z
643250 1 147.75 240.75 132.75
670733 1 156.75 207.75 138.75
685969 1 144.75 228.75 141.75
698213 1 156.75 174.75 144.75
726524 1 129.75 162.75 150.75
729172 1 153.75 228.75 150.75
729531 1 150.75 237.75 150.75
740319 1 114.75 147.75 153.75
769371 1 150.75 153.75 159.75
783762 1 123.75 153.75 162.75
783767 1 138.75 153.75 162.75
784117 1 108.75 162.75 162.75
784134 1 159.75 162.75 162.75
798400 1 117.75 159.75 165.75
798404 1 129.75 159.75 165.75
798405 1 132.75 159.75 165.75
798409 1 144.75 159.75 165.75
798524 1 129.75 162.75 165.75
798525 1 132.75 162.75 165.75
812681 1 120.75 156.75 168.75
812690 1 147.75 156.75 168.75
812812 1 153.75 159.75 168.75
826970 1 147.75 153.75 171.75
827083 1 126.75 156.75 171.75
827087 1 138.75 156.75 171.75
827207 1 138.75 159.75 171.75
827330 1 147.75 162.75 171.75
827444 1 129.75 165.75 171.75
827447 1 138.75 165.75 171.75
827448 1 141.75 165.75 171.75
827561 1 120.75 168.75 171.75
827567 1 138.75 168.75 171.75
827568 1 141.75 168.75 171.75
841248 1 141.75 150.75 174.75
841363 1 126.75 153.75 174.75
841483 1 126.75 156.75 174.75
841487 1 138.75 156.75 174.75
841607 1 138.75 159.75 174.75
841722 1 123.75 162.75 174.75
855889 1 144.75 156.75 177.75
856132 1 153.75 162.75 177.75
856364 1 129.75 168.75 177.75
856373 1 156.75 168.75 177.75
869804 1 129.75 144.75 180.75
870289 1 144.75 156.75 180.75
883977 1 168.75 138.75 183.75
884925 1 132.75 162.75 183.75
899086 1 135.75 156.75 186.75
899092 1 153.75 156.75 186.75
942282 1 123.75 156.75 195.75
942291 1 150.75 156.75 195.75
942645 1 132.75 165.75 195.75
955615 1 162.75 129.75 198.75
956807 1 138.75 159.75 198.75
970015 1 162.75 129.75 201.75
970739 1 174.75 147.75 201.75
1086165 1 132.75 153.75 225.75
2255212 1 155.25 221.25 110.25
2268165 1 134.25 185.25 113.25
2313408 1 143.25 236.25 122.25
2356729 1 146.25 239.25 131.25
2384928 1 143.25 224.25 137.25
2385527 1 140.25 239.25 137.25
2399688 1 143.25 233.25 140.25
2439998 1 113.25 161.25 149.25
2454168 1 143.25 155.25 152.25
2455476 1 107.25 188.25 152.25
2457652 1 155.25 242.25 152.25
2468560 1 119.25 155.25 155.25
2468810 1 149.25 161.25 155.25
2497238 1 113.25 152.25 161.25
2511038 1 113.25 137.25 164.25
2511760 1 119.25 155.25 164.25
2511769 1 146.25 155.25 164.25
2512358 1 113.25 170.25 164.25
2525564 1 131.25 140.25 167.25
2525809 1 146.25 146.25 167.25
2526164 1 131.25 155.25 167.25
2526168 1 143.25 155.25 167.25
2526529 1 146.25 164.25 167.25
2540566 1 137.25 155.25 170.25
2540683 1 128.25 158.25 170.25
2540805 1 134.25 161.25 170.25
2541047 1 140.25 167.25 170.25
2541411 1 152.25 176.25 170.25
2554850 1 149.25 152.25 173.25
2555088 1 143.25 158.25 173.25
2555089 1 146.25 158.25 173.25
2569482 1 125.25 158.25 176.25
2569610 1 149.25 161.25 176.25
2569979 1 176.25 170.25 176.25
2583648 1 143.25 152.25 179.25
2584013 1 158.25 161.25 179.25
2584602 1 125.25 176.25 179.25
2598280 1 119.25 158.25 182.25
2598402 1 125.25 161.25 182.25
2598525 1 134.25 164.25 182.25
2612208 1 143.25 146.25 185.25
2612802 1 125.25 161.25 185.25
2613051 1 152.25 167.25 185.25
2641251 1 152.25 152.25 191.25
2641488 1 143.25 158.25 191.25
2669695 1 164.25 143.25 197.25
2698374 1 161.25 140.25 203.25
2727057 1 170.25 137.25 209.25
