ITEM: TIMESTEP
91262
ITEM: NUMBER OF ATOMS
31
ITEM: BOX BOUNDS pp pp pp
0 360
0 360
0 360
ITEM: ATOMS id type x y z
827092 1 153.75 156.75 171.75
841362 1 123.75 153.75 174.75
885173 1 156.75 168.75 183.75
885662 1 183.75 180.75 183.75
886024 1 189.75 189.75 183.75
928249 1 144.75 165.75 192.75
928371 1 150.75 168.75 192.75
929451 1 150.75 195.75 192.75
943735 1 162.75 192.75 195.75
958140 1 177.75 192.75 198.75
971571 1 150.75 168.75 201.75
985731 1 150.75 162.75 204.75
986930 1 147.75 192.75 204.75
987780 1 177.75 213.75 204.75
1001333 1 156.75 192.75 207.75
1015246 1 135.75 180.75 210.75
1043328 1 141.75 162.75 216.75
1072009 1 144.75 159.75 222.75
1073951 1 210.75 207.75 222.75
2424766 1 137.25 140.25 146.25
2512727 1 140.25 179.25 164.25
2584845 1 134.25 182.25 179.25
2584979 1 176.25 185.25 179.25
2600097 1 170.25 203.25 182.25
2613536 1 167.25 179.25 185.25
2658185 1 194.25 215.25 194.25
2670656 1 167.25 167.25 197.25
2685168 1 143.25 170.25 200.25
2716145 1 194.25 224.25 206.25
2829530 1 149.25 179.25 230.25
2843090 1 149.25 158.25 233.25
