ITEM: TIMESTEP
88000
ITEM: NUMBER OF ATOMS
58
ITEM: BOX BOUNDS pp pp pp
0 360
0 360
0 360
ITEM: ATOMS id type x y z c_myKE c_myPE
2225700 1 180.19 205.625 100.637 0.106189 -6.69282
2269751 1 213.473 228.313 107.939 0.328779 -6.77151
2269870 1 210.21 231.18 108.064 0.0827052 -7.93913
2299370 1 146.154 250.36 114.169 0.0635113 -6.85954
598024 1 187.959 191.041 119.781 0.116346 -6.86629
625365 1 127.285 152.145 127.615 0.0413266 -7.19342
2339335 1 163.961 162.033 126.064 0.0650561 -7.04151
2410371 1 151.221 136.665 141.847 0.229133 -6.79826
2425512 1 216.461 157.72 142.921 0.0270457 -6.20731
2440023 1 190.253 159.462 148.395 0.0849793 -7.77812
740942 1 186.605 161.53 150.026 0.192223 -7.66199
755341 1 186.469 159.589 152.037 0.049047 -7.11533
2440737 1 168.708 181.368 152.264 0.0203833 -7.74875
2455378 1 170.437 183.22 152.288 0.104552 -7.4603
2456596 1 229.543 216.293 151.692 0.0431677 -6.86744
755936 1 164.885 179.99 153.766 0.450106 -7.44328
2455136 1 164.299 182.077 155.265 0.0825595 -7.40018
2483935 1 167.08 181.366 154.927 0.0510029 -8.00832
741777 1 168.351 183.679 153.912 0.254883 -8.2166
756418 1 171.001 184.599 154.705 0.0555916 -7.57104
784856 1 164.278 184.25 157.384 0.144289 -7.72119
785215 1 167.154 184.757 158.061 0.356438 -7.87866
2502308 1 203.775 285.379 159.079 0.213795 -6.64372
2529535 1 164.217 243.753 162.511 0.0517483 -5.69206
2588106 1 197.186 269.607 180.315 0.0330151 -6.25519
2686140 1 178.368 194.196 203.916 0.129022 -8.0312
972418 1 168.499 197.557 203.971 0.307733 -6.15904
2714699 1 178.317 191.048 207.051 0.126017 -8.04675
972414 1 156.043 194.154 205.999 0.294796 -6.28616
2729097 1 172.07 194.388 206.924 0.0231394 -7.93707
972540 1 180.271 192.777 205.524 0.17824 -7.43646
2700540 1 178.27 197.452 206.806 0.00969278 -8.04211
2743259 1 178.269 184.755 210.249 0.0744971 -6.66469
2729098 1 175.262 190.944 210.139 0.083913 -8.22642
986939 1 178.319 194.085 210.198 0.474146 -8.2099
2757780 1 181.433 184.625 213.205 0.14721 -6.16998
2729099 1 178.208 191.008 213.418 0.0576275 -6.47478
1057866 1 197.654 166.95 222.55 0.147508 -7.15195
2800385 1 196.471 167.063 225.762 0.149082 -6.8552
1072388 1 200.52 168.778 225.947 0.110711 -7.10852
497820 1 178.431 207.331 98.9151 0.0407038 -6.53807
514137 1 166.896 256.319 100.072 0.0709862 -6.64247
570551 1 211.382 226.405 113.093 0.419702 -7.14288
571609 1 141.596 255.052 112.932 0.114087 -6.17081
625485 1 128.992 154.063 127.496 0.100895 -6.48213
625855 1 162.325 163.873 127.713 0.177016 -6.47679
628011 1 149.657 223.157 127.646 0.12331 -6.28694
726302 1 186.147 157.539 148.063 0.0183161 -8.08145
2484176 1 168.889 183.049 156.452 0.424357 -8.32774
2484296 1 168.602 185.72 155.768 0.0460164 -8.14138
829016 1 175.385 201.875 163.843 0.0942998 -6.51668
841135 1 162.453 144.814 173.222 0.170419 -7.17473
2714938 1 176.698 192.634 205.632 0.252709 -8.04231
1015740 1 176.811 195.854 208.335 0.0709467 -8.34561
1001459 1 175.306 197.572 207.004 0.183725 -8.03716
1001217 1 173.472 192.879 211.565 0.0291157 -7.60083
2729337 1 176.995 195.637 211.923 0.253179 -7.85349
1101186 1 199.166 170.508 227.609 0.337141 -6.56146
