ITEM: TIMESTEP
93000
ITEM: NUMBER OF ATOMS
82
ITEM: BOX BOUNDS pp pp pp
0 360
0 360
0 360
ITEM: ATOMS id type x y z
684652 1 153.75 195.75 141.75
685736 1 165.75 222.75 141.75
697251 1 150.75 150.75 144.75
712740 1 177.75 177.75 147.75
726889 1 144.75 171.75 150.75
727021 1 180.75 174.75 150.75
727141 1 180.75 177.75 150.75
741302 1 183.75 171.75 153.75
782948 1 201.75 132.75 162.75
783066 1 195.75 135.75 162.75
797347 1 198.75 132.75 165.75
799501 1 180.75 186.75 165.75
811746 1 195.75 132.75 168.75
827581 1 180.75 168.75 171.75
842598 1 231.75 183.75 174.75
914585 1 192.75 183.75 189.75
914586 1 195.75 183.75 189.75
914601 1 240.75 183.75 189.75
914705 1 192.75 186.75 189.75
928985 1 192.75 183.75 192.75
929002 1 243.75 183.75 192.75
943519 1 234.75 186.75 195.75
957917 1 228.75 186.75 198.75
958037 1 228.75 189.75 198.75
958039 1 234.75 189.75 198.75
958158 1 231.75 192.75 198.75
972677 1 228.75 195.75 201.75
972678 1 231.75 195.75 201.75
985874 1 219.75 165.75 204.75
987314 1 219.75 201.75 204.75
1000273 1 216.75 165.75 207.75
1000621 1 180.75 174.75 207.75
1014077 1 228.75 150.75 210.75
1015020 1 177.75 174.75 210.75
1015141 1 180.75 177.75 210.75
1100477 1 228.75 150.75 228.75
1145017 1 288.75 183.75 237.75
1216644 1 249.75 174.75 252.75
1216765 1 252.75 177.75 252.75
1231170 1 267.75 177.75 255.75
1245324 1 249.75 171.75 258.75
1331965 1 252.75 177.75 276.75
2267711 1 212.25 173.25 113.25
2309583 1 188.25 140.25 122.25
2439296 1 167.25 143.25 149.25
2440620 1 179.25 176.25 149.25
2454781 1 182.25 170.25 152.25
2454901 1 182.25 173.25 152.25
2455021 1 182.25 176.25 152.25
2455141 1 182.25 179.25 152.25
2483723 1 248.25 173.25 158.25
2496665 1 194.25 137.25 161.25
2555461 1 182.25 167.25 173.25
2628184 1 191.25 185.25 188.25
2657105 1 194.25 188.25 194.25
2657237 1 230.25 191.25 194.25
2671398 1 233.25 185.25 197.25
2671517 1 230.25 188.25 197.25
2671637 1 230.25 191.25 197.25
2685916 1 227.25 188.25 200.25
2686037 1 230.25 191.25 200.25
2686156 1 227.25 194.25 200.25
2686157 1 230.25 194.25 200.25
2700677 1 230.25 197.25 203.25
2700794 1 221.25 200.25 203.25
2713397 1 230.25 155.25 206.25
2727556 1 227.25 149.25 209.25
2727675 1 224.25 152.25 209.25
2728619 1 176.25 176.25 209.25
2742195 1 224.25 155.25 212.25
2742899 1 176.25 173.25 212.25
2772567 1 260.25 194.25 218.25
2800384 1 191.25 170.25 224.25
2872896 1 287.25 182.25 239.25
2945974 1 281.25 209.25 254.25
2959043 1 248.25 176.25 257.25
2988555 1 224.25 194.25 263.25
3003699 1 296.25 212.25 266.25
3046038 1 233.25 191.25 275.25
3059844 1 251.25 176.25 278.25
3074243 1 248.25 176.25 281.25
3087680 1 239.25 152.25 284.25
