ITEM: TIMESTEP
86000
ITEM: NUMBER OF ATOMS
54
ITEM: BOX BOUNDS pp pp pp
0 360
0 360
0 360
ITEM: ATOMS id type x y z
667751 1 210.75 132.75 138.75
755700 1 177.75 171.75 156.75
755940 1 177.75 177.75 156.75
770220 1 177.75 174.75 159.75
770339 1 174.75 177.75 159.75
783657 1 168.75 150.75 162.75
783658 1 171.75 150.75 162.75
797823 1 186.75 144.75 165.75
855419 1 174.75 144.75 177.75
866710 1 207.75 66.75 180.75
869699 1 174.75 141.75 180.75
883860 1 177.75 135.75 183.75
883979 1 174.75 138.75 183.75
883980 1 177.75 138.75 183.75
883981 1 180.75 138.75 183.75
884100 1 177.75 141.75 183.75
898260 1 177.75 135.75 186.75
912539 1 174.75 132.75 189.75
912540 1 177.75 132.75 189.75
912660 1 177.75 135.75 189.75
912661 1 180.75 135.75 189.75
913394 1 219.75 153.75 189.75
913395 1 222.75 153.75 189.75
926939 1 174.75 132.75 192.75
927915 1 222.75 156.75 192.75
956087 1 138.75 141.75 198.75
956208 1 141.75 144.75 198.75
956329 1 144.75 147.75 198.75
970506 1 195.75 141.75 201.75
2280415 1 164.25 131.25 116.25
2325295 1 164.25 173.25 125.25
2395372 1 155.25 125.25 140.25
2398732 1 155.25 209.25 140.25
2409652 1 155.25 122.25 143.25
2468572 1 155.25 155.25 155.25
2483698 1 173.25 173.25 158.25
2483819 1 176.25 176.25 158.25
2497137 1 170.25 149.25 161.25
2498099 1 176.25 173.25 161.25
2498218 1 173.25 176.25 161.25
2498714 1 221.25 188.25 161.25
2554497 1 170.25 143.25 173.25
2583179 1 176.25 140.25 179.25
2583299 1 176.25 143.25 179.25
2597580 1 179.25 140.25 182.25
2611859 1 176.25 137.25 185.25
2611978 1 173.25 140.25 185.25
2626261 1 182.25 137.25 188.25
2626262 1 185.25 137.25 188.25
2626379 1 176.25 140.25 188.25
2640419 1 176.25 131.25 191.25
2641394 1 221.25 155.25 191.25
2641395 1 224.25 155.25 191.25
2744225 1 194.25 206.25 212.25
