ITEM: TIMESTEP
87253
ITEM: NUMBER OF ATOMS
54
ITEM: BOX BOUNDS pp pp pp
0 360
0 360
0 360
ITEM: ATOMS id type x y z c_myKE c_myPE
2381351 1 212.086 130.419 135.569 0 -6.25373
769859 1 177.092 170.45 154.553 0 -6.60478
770100 1 173.772 173.699 154.668 0 -7.49677
2483696 1 177.06 177.071 154.851 0 -7.32611
784739 1 173.837 173.761 157.762 0 -7.70716
2498218 1 177.034 173.795 157.808 0 -8.09371
741658 1 173.743 176.984 157.742 0 -7.6363
783658 1 168.775 148.134 162.078 0 -6.85955
783659 1 170.669 149.594 160.882 0 -6.76915
797702 1 186.587 141.94 164.284 0 -6.27066
2568900 1 173.673 135.559 177.097 0 -8.08469
2597699 1 173.783 138.312 176.91 0 -7.80685
2594590 1 210.132 58.9946 181.437 0 -6.25357
855060 1 176.889 132.067 180.163 0 -8.27438
2597460 1 176.88 132.127 183.289 0 -8.73363
898380 1 175.21 136.876 184.592 0 -8.55199
2626140 1 176.892 129.012 186.489 0 -8.27811
2626137 1 176.896 132.183 186.369 0 -8.52834
2597580 1 173.852 135.43 186.436 0 -7.83357
2625897 1 173.757 125.948 189.802 0 -7.74867
2597338 1 173.797 129.05 189.84 0 -7.93363
2641273 1 221.693 151.371 190.907 0 -7.21363
912420 1 173.743 129.006 192.873 0 -7.30249
2655794 1 224.779 154.721 194.316 0 -7.09961
2684087 1 136.765 139.974 200.66 0 -6.91117
2684208 1 139.966 143.158 200.276 0 -7.36174
984785 1 197.487 138.796 202.609 0 -6.25201
552536 1 162.641 127.569 112.875 0 -6.25306
611696 1 163.889 173.465 122.452 0 -6.25292
681773 1 154.31 121.174 138.391 0 -6.8176
670733 1 154.333 210.493 137.162 0 -6.25304
696053 1 154.185 117.908 141.637 0 -6.54122
740692 1 153.019 154.314 153.091 0 -6.25155
2497138 1 170.428 146.607 160.597 0 -7.06316
2469180 1 175.31 172.176 159.474 0 -7.24316
2512617 1 172.173 175.265 159.459 0 -7.12744
770714 1 223.282 188.186 159.491 0 -6.25261
855418 1 170.273 141.643 173.578 0 -6.96074
2568779 1 172.119 140.162 175.326 0 -7.26161
2583060 1 175.27 133.772 178.603 0 -8.23678
2568778 1 172.168 137.04 178.8 0 -7.70122
2611741 1 178.549 130.586 181.8 0 -8.03651
869219 1 175.32 133.71 181.702 0 -8.75297
2583179 1 175.325 136.849 181.589 0 -8.48953
883741 1 178.463 130.541 184.786 0 -8.32118
2611979 1 175.291 133.733 184.762 0 -8.46653
884099 1 172.362 137.097 184.758 0 -7.37395
898140 1 175.333 127.465 188.221 0 -8.27659
912659 1 175.332 130.566 188.085 0 -8.09389
927674 1 223.286 149.893 192.607 0 -7.32245
927794 1 223.232 152.993 192.419 0 -7.46563
927795 1 226.532 152.948 192.791 0 -7.42979
956329 1 141.69 144.882 198.845 0 -6.64658
1016225 1 194.584 207.324 213.707 0 -6.25123
