ITEM: TIMESTEP
88539
ITEM: NUMBER OF ATOMS
73
ITEM: BOX BOUNDS pp pp pp
0 360
0 360
0 360
ITEM: ATOMS id type x y z c_myKE c_myPE
2339097 1 170.631 157.861 123.993 0 -6.25496
2427066 1 199.356 199.339 143.114 0 -6.25227
2468096 1 167.449 139.953 154.768 0 -6.82645
2556423 1 191.058 191.2 173.726 0 -7.15345
2570704 1 192.951 189.574 175.198 0 -7.91772
2582335 1 162.296 114.445 178.217 0 -6.25425
2584868 1 205.741 183.508 178.189 0 -6.90066
2585002 1 248.448 184.619 178.21 0 -6.25348
2584984 1 192.904 186.445 178.259 0 -7.7934
871504 1 192.923 189.521 178.286 0 -8.18011
871626 1 196.052 189.515 178.408 0 -8.20749
2599746 1 197.581 194.246 183.24 0 -8.30499
2657222 1 191.033 197.422 183.138 0 -7.24943
2614146 1 194.196 197.389 183.203 0 -8.16702
886266 1 200.493 197.378 183.455 0 -7.79768
2625284 1 127.205 108.055 187.787 0 -6.25259
886146 1 197.583 197.258 186.437 0 -7.67595
900903 1 194.206 200.69 186.348 0 -6.76236
2657224 1 194.401 197.593 189.749 0 -7.0781
2726343 1 189.766 116.387 210.119 0 -6.25495
2742186 1 199.336 152.726 213.313 0 -6.25671
1044314 1 218.476 187.819 219.675 0 -6.25555
2787307 1 202.522 205.713 224.818 0 -6.25497
2829065 1 194.191 165.478 234.44 0 -7.06133
1201016 1 165.2 143.257 248.542 0 -7.36765
1186735 1 159.151 146.545 251.73 0 -8.6548
1186616 1 162.196 146.571 251.635 0 -8.27619
1201255 1 159.188 149.713 251.747 0 -7.87278
2927690 1 148.278 108.053 257.96 0 -6.25484
2971972 1 155.836 139.997 264.388 0 -6.41362
2957813 1 159.018 148.346 264.59 0 -6.4991
1230052 1 155.939 151.552 264.388 0 -6.84717
3045037 1 104.877 167.426 280.3 0 -6.25468
3058728 1 139.974 146.354 286.67 0 -6.25772
3103374 1 161.061 184.639 293.074 0 -6.25281
3160481 1 119.579 171.858 307.766 0 -6.25467
711777 1 169.028 151.134 144.729 0 -6.25493
754616 1 165.677 141.723 156.353 0 -6.54394
798283 1 122.424 154.319 163.867 0 -6.2545
813434 1 224.505 173.462 167.047 0 -6.25542
815701 1 179.844 234.078 168.995 0 -6.25751
842824 1 192.67 192.763 175.347 0 -7.53922
871388 1 203.963 185.074 179.976 0 -6.5602
2570824 1 195.951 192.732 178.688 0 -8.18706
2585225 1 197.711 191.168 180.002 0 -8.0295
900544 1 196.025 192.613 181.672 0 -8.20295
842945 1 192.685 195.905 181.576 0 -7.64834
2599984 1 195.795 195.732 181.613 0 -8.68581
2613905 1 195.989 195.814 184.727 0 -8.33104
954769 1 140.312 105.227 197.693 0 -6.25062
996896 1 165.836 74.5737 208.52 0 -6.2542
1129735 1 160.703 160.675 237.26 0 -6.27041
1115466 1 195.602 163.746 236.024 0 -7.38173
1115585 1 192.461 166.89 236.024 0 -7.37782
1129865 1 192.807 164.091 239.34 0 -7.24231
1155303 1 186.1 74.6515 245.475 0 -6.54647
1186377 1 166.983 141.544 246.787 0 -7.0723
2928896 1 160.816 144.961 246.975 0 -7.75269
1201254 1 154.343 147.807 246.806 0 -7.3488
1169583 1 186.222 71.3956 248.732 0 -6.82273
2900334 1 163.671 144.84 250.27 0 -7.62251
2886057 1 160.633 148.128 250.061 0 -8.41461
2914613 1 157.488 141.728 253.361 0 -8.09829
1186852 1 154.366 144.926 253.311 0 -8.02404
2943653 1 157.585 144.939 253.295 0 -8.5966
1186855 1 160.745 144.892 253.164 0 -8.30462
2929134 1 157.512 148.074 253.223 0 -8.44568
2928653 1 156.139 136.995 255.207 0 -6.66697
1201015 1 161.003 141.702 256.43 0 -7.0338
2914493 1 157.543 144.751 256.363 0 -7.79598
1284757 1 103.276 71.3775 272.323 0 -6.25472
1303847 1 137.124 195.794 275.518 0 -6.2537
1315245 1 128.793 116.04 278.701 0 -6.25566
