ITEM: TIMESTEP
85200
ITEM: NUMBER OF ATOMS
88
ITEM: BOX BOUNDS pp pp pp
0 360
0 360
0 360
ITEM: ATOMS id type x y z
711290 1 147.75 141.75 147.75
754857 1 168.75 150.75 156.75
767816 1 165.75 114.75 159.75
770218 1 171.75 174.75 159.75
810896 1 165.75 111.75 168.75
811016 1 165.75 114.75 168.75
813658 1 171.75 180.75 168.75
814018 1 171.75 189.75 168.75
840179 1 174.75 123.75 174.75
854581 1 180.75 123.75 177.75
857226 1 195.75 189.75 177.75
882777 1 168.75 108.75 183.75
882897 1 168.75 111.75 183.75
883255 1 162.75 120.75 183.75
885413 1 156.75 174.75 183.75
885790 1 207.75 183.75 183.75
897418 1 171.75 114.75 186.75
897656 1 165.75 120.75 186.75
897781 1 180.75 123.75 186.75
910862 1 183.75 90.75 189.75
911573 1 156.75 108.75 189.75
912178 1 171.75 123.75 189.75
912181 1 180.75 123.75 189.75
912659 1 174.75 135.75 189.75
914451 1 150.75 180.75 189.75
914574 1 159.75 183.75 189.75
926099 1 174.75 111.75 192.75
942546 1 195.75 162.75 195.75
943028 1 201.75 174.75 195.75
943154 1 219.75 177.75 195.75
969068 1 201.75 105.75 201.75
971952 1 213.75 177.75 201.75
1001225 1 192.75 189.75 207.75
1001345 1 192.75 192.75 207.75
1015152 1 213.75 177.75 210.75
1015865 1 192.75 195.75 210.75
1043344 1 189.75 162.75 216.75
1044787 1 198.75 198.75 216.75
1057626 1 195.75 159.75 219.75
2425009 1 146.25 146.25 146.25
2439171 1 152.25 140.25 149.25
2495215 1 164.25 101.25 161.25
2497135 1 164.25 149.25 161.25
2497255 1 164.25 152.25 161.25
2513229 1 206.25 191.25 164.25
2524135 1 164.25 104.25 167.25
2524736 1 167.25 119.25 167.25
2526776 1 167.25 170.25 167.25
2526891 1 152.25 173.25 167.25
2541176 1 167.25 170.25 170.25
2541291 1 152.25 173.25 170.25
2541296 1 167.25 173.25 170.25
2553416 1 167.25 116.25 173.25
2555574 1 161.25 170.25 173.25
2582339 1 176.25 119.25 179.25
2582695 1 164.25 128.25 179.25
2582815 1 164.25 131.25 179.25
2584493 1 158.25 173.25 179.25
2596378 1 173.25 110.25 182.25
2596612 1 155.25 116.25 182.25
2596739 1 176.25 119.25 182.25
2597338 1 173.25 134.25 182.25
2610778 1 173.25 110.25 185.25
2611012 1 155.25 116.25 185.25
2625655 1 164.25 122.25 188.25
2628412 1 155.25 191.25 188.25
2639816 1 167.25 116.25 191.25
2639821 1 182.25 116.25 191.25
2640298 1 173.25 128.25 191.25
2642459 1 176.25 182.25 191.25
2654698 1 173.25 128.25 194.25
2655057 1 170.25 137.25 194.25
2669338 1 173.25 134.25 197.25
2670909 1 206.25 173.25 197.25
2685422 1 185.25 176.25 200.25
2685423 1 188.25 176.25 200.25
2685542 1 185.25 179.25 200.25
2699711 1 212.25 173.25 203.25
2714945 1 194.25 194.25 206.25
2728512 1 215.25 173.25 209.25
2728984 1 191.25 185.25 209.25
2729345 1 194.25 194.25 209.25
2743028 1 203.25 176.25 212.25
2757424 1 191.25 176.25 215.25
2757429 1 206.25 176.25 215.25
2800625 1 194.25 176.25 224.25
2800748 1 203.25 179.25 224.25
2800859 1 176.25 182.25 224.25
