ITEM: TIMESTEP
85200
ITEM: NUMBER OF ATOMS
88
ITEM: BOX BOUNDS pp pp pp
0 360
0 360
0 360
ITEM: ATOMS id type x y z c_myKE c_myPE
714175 1 159.115 216.563 145.105 0 -6.25222
785705 1 191.014 205.742 162.292 0 -6.25293
828556 1 229.295 191.032 171.836 0 -6.2518
2583549 1 207.242 146.224 178.3 0 -6.53583
856018 1 165.774 157.888 177.394 0 -7.14241
855776 1 165.672 157.686 180.285 0 -7.99634
2598417 1 168.799 157.782 180.304 0 -8.36255
2598321 1 247.052 156.1 183.449 0 -6.54299
870417 1 168.878 157.753 183.412 0 -8.46189
2612818 1 172.04 157.732 183.503 0 -8.46328
2626006 1 132.276 127.119 187.896 0 -6.71499
2612577 1 172.032 154.487 186.536 0 -8.03615
928259 1 173.731 159.362 187.981 0 -8.34208
913739 1 175.227 157.843 189.694 0 -8.47083
913857 1 175.285 161.026 189.591 0 -8.07404
927902 1 181.598 154.577 193.005 0 -8.22463
913740 1 178.513 157.846 192.836 0 -8.16237
2669597 1 234.451 138.744 197.338 0 -6.25284
2641020 1 175.386 145.345 195.836 0 -6.69045
2655540 1 178.529 148.335 196.051 0 -8.13398
2655538 1 178.591 151.409 196.205 0 -8.4466
2641499 1 178.513 154.486 196.053 0 -8.56133
2641500 1 181.523 157.744 195.967 0 -8.4584
2669699 1 175.303 148.251 199.389 0 -7.41479
2655781 1 178.46 151.418 199.238 0 -8.63872
2655900 1 181.623 154.597 199.228 0 -8.82174
2670301 1 181.609 157.734 199.129 0 -8.77002
956821 1 184.746 157.824 199.271 0 -8.4442
2698739 1 181.661 151.474 202.434 0 -8.82213
2698982 1 181.619 154.581 202.345 0 -8.85982
2699121 1 247.173 155.863 203.751 0 -6.91333
971223 1 184.816 157.759 202.283 0 -8.038
970860 1 178.381 148.202 205.494 0 -8.11586
2727542 1 181.568 148.256 205.576 0 -8.7942
2698740 1 181.605 151.421 205.505 0 -8.82281
2713401 1 247.169 152.765 206.845 0 -6.90968
971102 1 181.538 154.567 205.463 0 -8.62475
2713520 1 243.836 155.949 206.941 0 -6.60218
2727412 1 152.732 143.28 210.103 0 -6.27072
2727540 1 180.017 146.501 210.101 0 -8.14336
985021 1 181.543 148.205 208.656 0 -8.77641
2713382 1 184.696 151.325 208.717 0 -8.47401
1013941 1 181.553 148.176 211.785 0 -8.31515
2727662 1 184.712 151.438 211.881 0 -8.61612
2741942 1 184.683 148.127 215.025 0 -7.46254
1073942 1 184.619 210.215 222.901 0 -6.24621
2844184 1 192.947 184.686 235.665 0 -6.26409
609651 1 147.968 118.028 122.439 0 -6.25202
2424774 1 157.545 140.365 146.708 0 -6.26057
727492 1 151.225 186.141 149.826 0 -6.5538
741891 1 147.971 186.281 153.079 0 -6.81815
2497499 1 176.646 156.278 157.502 0 -6.26337
855669 1 205.483 147.809 176.534 0 -6.81357
2555095 1 164.097 156.027 178.582 0 -7.09267
2584258 1 170.484 159.512 178.946 0 -7.33735
870322 1 248.818 154.33 181.862 0 -6.821
2598057 1 167.364 156.022 181.773 0 -8.12072
899098 1 170.499 159.334 181.911 0 -8.2338
898006 1 137.97 124.377 186.141 0 -7.00214
2611607 1 134.032 128.466 186.129 0 -7.19241
2627097 1 170.436 156.098 184.983 0 -8.35129
2598177 1 173.575 156.114 185.024 0 -8.37536
2614991 1 213.685 220.086 184.962 0 -6.25151
2612697 1 173.581 156.142 188.126 0 -8.30365
2656019 1 176.852 156.192 191.357 0 -7.97748
899220 1 176.905 159.398 191.183 0 -8.35655
2626859 1 177.273 150.315 194.207 0 -7.73662
2657222 1 184.952 194.579 195.763 0 -6.2523
944227 1 198.992 205.398 195.778 0 -6.24597
927901 1 180.088 152.995 197.711 0 -8.77126
2684702 1 180.047 156.131 197.55 0 -8.80403
942302 1 183.11 159.434 197.667 0 -8.19648
2670060 1 180.102 149.843 200.963 0 -8.48684
970980 1 180.057 152.993 200.771 0 -8.83297
956823 1 183.175 156.192 200.766 0 -8.80191
2698620 1 180.102 149.819 203.914 0 -8.58482
971222 1 183.189 156.225 203.876 0 -8.37363
985140 1 179.951 146.62 207.076 0 -8.37618
2698862 1 183.13 149.818 207.144 0 -8.81234
2713261 1 183.189 152.978 207.133 0 -8.44347
2727420 1 183.116 149.787 210.261 0 -8.80394
2655300 1 186.133 153.067 210.18 0 -7.88414
999542 1 183.108 149.826 213.36 0 -8.41012
1014063 1 186.26 149.802 213.508 0 -7.65515
1028703 1 185.003 157.779 215.039 0 -6.73105
1043831 1 220.054 172.247 218.09 0 -6.25616
2801932 1 156.247 210.561 227.702 0 -6.25424
1172108 1 202.15 138.417 248.743 0 -6.25663
