ITEM: TIMESTEP
93000
ITEM: NUMBER OF ATOMS
66
ITEM: BOX BOUNDS pp pp pp
0 360
0 360
0 360
ITEM: ATOMS id type x y z c_myKE c_myPE
2482967 1 136.737 152.672 157.984 0.254103 -6.94376
2554369 1 145.208 137.172 171.907 0.36903 -6.59784
2555206 1 135.397 161.21 173.267 0.151683 -6.56975
2569608 1 139.096 160.806 176.46 0.0364927 -6.66121
2600925 1 132.159 225.991 181.384 0.233025 -5.76075
2701711 1 85.5927 226.33 202.511 0.123842 -7.06387
2697646 1 133.277 117.43 205.797 0.331636 -7.42376
2714693 1 158.058 189.626 206.592 0.133358 -6.33456
2758729 1 145.048 213.549 216.479 0.24588 -6.15889
2759554 1 97.0857 234.477 216.61 0.212195 -6.57389
2787180 1 179.979 203.17 221.382 0.262696 -5.83628
2785613 1 155.758 157.78 224.722 0.344699 -6.9274
2771333 1 154.978 165.433 225.84 0.0727065 -7.3263
2801236 1 230.98 192.956 226.055 0.12171 -6.4145
1103354 1 224.419 226.159 232.367 0.209554 -6.75252
2843561 1 116.382 167.399 235.334 0.155409 -6.72584
2830956 1 101.861 216.588 234.201 0.329329 -7.48489
2845753 1 221.66 226.544 235.579 0.241932 -6.53299
2845252 1 154.436 215.253 237.342 0.532261 -6.39286
2873453 1 158.869 196.355 244.023 0.435482 -7.01154
2888234 1 224.748 206.866 245.335 0.131663 -7.37568
2902753 1 221.803 210.454 245.059 0.220576 -7.30332
1174875 1 224.683 210.247 245.161 0.149691 -6.68621
2902754 1 225.005 210.479 248.279 0.137898 -7.08848
1187810 1 152.988 172.143 251.533 0.305583 -7.72528
1187574 1 156.051 172.002 251.562 0.136041 -7.09944
2915691 1 153.029 175.403 254.58 0.153322 -6.99047
1217832 1 219.29 210.208 261.181 0.118319 -7.37382
1232233 1 222.803 210.103 260.499 0.205821 -7.10927
3058484 1 129.079 140.235 285.646 0.218511 -6.28633
3073966 1 135.696 170.712 286.768 0.367378 -6.31865
3102533 1 159.291 162.436 296.025 0.296814 -6.0555
3174783 1 187.682 168.706 310.475 0.300403 -6.54952
754968 1 138.53 151.143 156.439 0.111479 -6.47926
841727 1 135.497 162.886 175.101 0.0995207 -6.89656
959312 1 87.704 226.156 198.664 0.254313 -6.76979
959313 1 89.9895 227.862 201.85 0.128073 -6.77702
983925 1 128.813 112.834 206.888 0.116178 -6.97244
1031555 1 98.5888 232.774 214.89 0.151187 -6.94502
1045955 1 98.6987 233 218.203 0.176558 -6.70563
2771334 1 156.209 160.853 221.298 0.0562575 -6.98143
1043454 1 159.375 164.02 221.003 0.0937674 -7.06231
2800134 1 159.103 160.849 224.355 0.0168282 -7.50513
2800254 1 159.663 164.111 223.892 0.254567 -7.00815
1088557 1 103.039 214.649 229.509 0.0022741 -7.39986
1102956 1 99.9009 214.967 232.98 0.0308804 -8.10418
1103076 1 99.9967 218.283 232.412 0.149471 -7.25245
1103474 1 221.26 229.619 232.699 0.502593 -6.7217
1144281 1 243.723 163.872 240.362 0.0360983 -6.33349
1131772 1 153.071 216.927 238.965 0.221753 -6.44507
2886533 1 160.642 167.411 249.895 0.116025 -6.82261
1173292 1 157.441 170.236 249.629 0.323622 -7.16188
2915576 1 164.331 170.263 249.674 0.177525 -7.04772
1173412 1 154.46 173.908 249.713 0.0947621 -7.0267
2886773 1 160.891 170.612 252.949 0.344954 -7.65131
1188641 1 117.62 197.839 255.048 0.207127 -7.29042
1203162 1 121.045 201.148 254.909 0.052132 -7.48655
1217442 1 121.076 197.903 258.15 0.0525753 -7.04249
1217563 1 124.129 201.203 258.201 0.0499274 -7.36465
2973644 1 128.979 178.442 262.62 0.399385 -7.03315
1232354 1 221.059 208.835 262.814 0.274411 -7.18066
1245524 1 128.961 175.313 265.989 0.420752 -6.37284
2987560 1 121.352 172.14 267.555 0.0856132 -6.77058
3001962 1 124.244 172.065 270.912 0.070564 -5.92562
1316470 1 208.299 149.766 278.497 0.119169 -6.57984
1360378 1 172.466 168.97 289.968 0.294801 -6.65595
