ITEM: TIMESTEP
89000
ITEM: NUMBER OF ATOMS
111
ITEM: BOX BOUNDS pp pp pp
0 360
0 360
0 360
ITEM: ATOMS id type x y z
568480 1 117.75 171.75 117.75
786170 1 147.75 213.75 162.75
884337 1 168.75 147.75 183.75
884339 1 174.75 147.75 183.75
898737 1 168.75 147.75 186.75
898738 1 171.75 147.75 186.75
898739 1 174.75 147.75 186.75
898857 1 168.75 150.75 186.75
898858 1 171.75 150.75 186.75
898873 1 216.75 150.75 186.75
913017 1 168.75 144.75 189.75
913137 1 168.75 147.75 189.75
913257 1 168.75 150.75 189.75
913259 1 174.75 150.75 189.75
913378 1 171.75 153.75 189.75
927536 1 165.75 147.75 192.75
927656 1 165.75 150.75 192.75
927657 1 168.75 150.75 192.75
927778 1 171.75 153.75 192.75
941816 1 165.75 144.75 195.75
941936 1 165.75 147.75 195.75
942296 1 165.75 156.75 195.75
942297 1 168.75 156.75 195.75
956335 1 162.75 147.75 198.75
956456 1 165.75 150.75 198.75
956576 1 165.75 153.75 198.75
956697 1 168.75 156.75 198.75
956817 1 168.75 159.75 198.75
956818 1 171.75 159.75 198.75
957772 1 153.75 183.75 198.75
970735 1 162.75 147.75 201.75
970856 1 165.75 150.75 201.75
970976 1 165.75 153.75 201.75
971097 1 168.75 156.75 201.75
971217 1 168.75 159.75 201.75
971218 1 171.75 159.75 201.75
971338 1 171.75 162.75 201.75
985256 1 165.75 150.75 204.75
985377 1 168.75 153.75 204.75
985497 1 168.75 156.75 204.75
985617 1 168.75 159.75 204.75
985738 1 171.75 162.75 204.75
999777 1 168.75 153.75 207.75
1000017 1 168.75 159.75 207.75
1069719 1 114.75 102.75 222.75
1072270 1 207.75 165.75 222.75
1085811 1 150.75 144.75 225.75
1085932 1 153.75 147.75 225.75
1157934 1 159.75 147.75 240.75
1172335 1 162.75 147.75 243.75
1200891 1 150.75 141.75 249.75
1215411 1 150.75 144.75 252.75
1215531 1 150.75 147.75 252.75
1271085 1 132.75 96.75 264.75
1285605 1 132.75 99.75 267.75
1285606 1 135.75 99.75 267.75
1288981 1 180.75 183.75 267.75
1299886 1 135.75 96.75 270.75
1300006 1 135.75 99.75 270.75
1303501 1 180.75 186.75 270.75
1314406 1 135.75 99.75 273.75
1387717 1 108.75 132.75 288.75
2411227 1 200.25 161.25 143.25
2439073 1 218.25 137.25 149.25
2440603 1 128.25 176.25 149.25
2499769 1 146.25 215.25 161.25
2499770 1 149.25 215.25 161.25
2539740 1 179.25 134.25 170.25
2597817 1 170.25 146.25 182.25
2612218 1 173.25 146.25 185.25
2626735 1 164.25 149.25 188.25
2626857 1 170.25 152.25 188.25
2641136 1 167.25 149.25 191.25
2641257 1 170.25 152.25 191.25
2641259 1 176.25 152.25 191.25
2641378 1 173.25 155.25 191.25
2655296 1 167.25 143.25 194.25
2655656 1 167.25 152.25 194.25
2655657 1 170.25 152.25 194.25
2655776 1 167.25 155.25 194.25
2655777 1 170.25 155.25 194.25
2669815 1 164.25 146.25 197.25
2669935 1 164.25 149.25 197.25
2669936 1 167.25 149.25 197.25
2670056 1 167.25 152.25 197.25
2670297 1 170.25 158.25 197.25
2684335 1 164.25 149.25 200.25
2684576 1 167.25 155.25 200.25
2684818 1 173.25 161.25 200.25
2698735 1 164.25 149.25 203.25
2699217 1 170.25 161.25 203.25
2713256 1 167.25 152.25 206.25
2713617 1 170.25 161.25 206.25
2713737 1 170.25 164.25 206.25
2728017 1 170.25 161.25 209.25
2728137 1 170.25 164.25 209.25
2786923 1 128.25 194.25 221.25
2799291 1 152.25 143.25 224.25
2799412 1 155.25 146.25 224.25
2813691 1 152.25 143.25 227.25
2813692 1 155.25 143.25 227.25
2826405 1 134.25 101.25 230.25
2841399 1 116.25 116.25 233.25
2929009 1 146.25 146.25 251.25
2929130 1 149.25 149.25 251.25
2943410 1 149.25 146.25 254.25
2943529 1 146.25 149.25 254.25
3002336 1 167.25 179.25 266.25
3002455 1 164.25 182.25 266.25
3013485 1 134.25 98.25 269.25
3016032 1 215.25 161.25 269.25
