ITEM: TIMESTEP
92767
ITEM: NUMBER OF ATOMS
74
ITEM: BOX BOUNDS pp pp pp
0 360
0 360
0 360
ITEM: ATOMS id type x y z
711767 1 138.75 153.75 147.75
725333 1 156.75 132.75 150.75
739385 1 192.75 123.75 153.75
740683 1 126.75 156.75 153.75
796724 1 129.75 117.75 165.75
796842 1 123.75 120.75 165.75
810524 1 129.75 102.75 168.75
811242 1 123.75 120.75 168.75
824804 1 129.75 99.75 171.75
824923 1 126.75 102.75 171.75
841129 1 144.75 147.75 174.75
898974 1 159.75 153.75 186.75
942041 1 120.75 150.75 195.75
942046 1 135.75 150.75 195.75
955723 1 126.75 132.75 198.75
955849 1 144.75 135.75 198.75
956089 1 144.75 141.75 198.75
956324 1 129.75 147.75 198.75
956686 1 135.75 156.75 198.75
970722 1 123.75 147.75 201.75
970724 1 129.75 147.75 201.75
985369 1 144.75 153.75 204.75
985970 1 147.75 168.75 204.75
999285 1 132.75 141.75 207.75
1014890 1 147.75 171.75 210.75
1028563 1 126.75 153.75 213.75
1042605 1 132.75 144.75 216.75
1230414 1 159.75 159.75 255.75
1316098 1 171.75 141.75 273.75
1316219 1 174.75 144.75 273.75
1330979 1 174.75 153.75 276.75
1345613 1 156.75 159.75 279.75
1345739 1 174.75 162.75 279.75
1359298 1 171.75 141.75 282.75
1359897 1 168.75 156.75 282.75
1374057 1 168.75 150.75 285.75
1374297 1 168.75 156.75 285.75
1374298 1 171.75 156.75 285.75
1474497 1 168.75 141.75 306.75
1489017 1 168.75 144.75 309.75
1575176 1 165.75 138.75 327.75
1575178 1 171.75 138.75 327.75
2424066 1 197.25 122.25 146.25
2438465 1 194.25 122.25 149.25
2452861 1 182.25 122.25 152.25
2454529 1 146.25 164.25 152.25
2467144 1 191.25 119.25 155.25
2496283 1 128.25 128.25 161.25
2512011 1 152.25 161.25 164.25
2524843 1 128.25 122.25 167.25
2554853 1 158.25 152.25 173.25
2655522 1 125.25 149.25 194.25
2669564 1 131.25 140.25 197.25
2670047 1 140.25 152.25 197.25
2670522 1 125.25 164.25 197.25
2698602 1 125.25 146.25 203.25
2699091 1 152.25 158.25 203.25
2712642 1 125.25 137.25 206.25
2713128 1 143.25 149.25 206.25
2728369 1 146.25 170.25 209.25
2740714 1 101.25 119.25 212.25
2755848 1 143.25 137.25 215.25
3029819 1 176.25 146.25 272.25
3044578 1 173.25 155.25 275.25
3045177 1 170.25 170.25 275.25
3058501 1 182.25 143.25 278.25
3073018 1 173.25 146.25 281.25
3073135 1 164.25 149.25 281.25
3073255 1 164.25 152.25 281.25
3073610 1 149.25 161.25 281.25
3073615 1 164.25 161.25 281.25
3288772 1 155.25 140.25 326.25
3289254 1 161.25 152.25 326.25
3303177 1 170.25 140.25 329.25
