ITEM: TIMESTEP
90463
ITEM: NUMBER OF ATOMS
113
ITEM: BOX BOUNDS pp pp pp
0 360
0 360
0 360
ITEM: ATOMS id type x y z c_myKE c_myPE
2310043 1 124.019 148.288 119.579 0 -6.25419
2354205 1 132.352 176.996 127.219 0 -6.25621
2384341 1 181.418 212.361 135.55 0 -7.33674
2397778 1 172.057 186.361 138.845 0 -6.62425
2398740 1 178.204 211.994 138.75 0 -6.92896
2440617 1 171.937 180.083 148.406 0 -7.76491
2440978 1 175.183 186.428 148.233 0 -8.36991
2455138 1 172.074 177.058 151.402 0 -8.43812
2440738 1 172.082 183.145 151.435 0 -8.53148
2469659 1 175.236 183.267 151.445 0 -8.82718
2455379 1 175.205 186.346 151.376 0 -8.83043
2455500 1 178.327 189.606 151.407 0 -8.77452
727621 1 178.325 192.835 151.451 0 -8.16478
784738 1 172.094 176.915 154.587 0 -8.79907
2469660 1 175.251 183.232 154.59 0 -8.86597
756180 1 178.343 186.433 154.533 0 -8.54359
2469900 1 178.334 189.553 154.488 0 -8.7456
2469901 1 181.436 189.577 154.703 0 -8.07134
2482853 1 157.869 149.519 157.832 0 -6.27139
755697 1 172.088 173.673 157.709 0 -8.11996
2483937 1 172.099 176.874 157.707 0 -8.79925
784739 1 175.24 180.075 157.74 0 -8.8494
2469539 1 175.231 183.212 157.692 0 -8.85858
2484300 1 178.407 189.668 157.657 0 -8.13807
2485006 1 133.53 207.003 157.855 0 -6.81931
2485127 1 136.775 210.267 157.997 0 -6.55517
2541057 1 175.241 176.933 160.935 0 -8.84602
784980 1 175.232 180.049 160.873 0 -8.85138
2498580 1 178.393 183.211 160.889 0 -8.0685
2513221 1 183.434 190.876 162.131 0 -7.32749
827695 1 175.161 173.67 163.958 0 -8.07135
2512619 1 175.204 176.873 163.998 0 -8.80039
799138 1 175.168 180.043 163.984 0 -8.59189
2555701 1 178.254 173.697 167.307 0 -8.04742
813419 1 178.347 176.803 167.207 0 -8.46244
2528463 1 189.735 213.304 167.336 0 -6.91196
2528582 1 186.565 216.52 167.746 0 -7.37697
2555698 1 178.354 176.917 170.286 0 -8.34985
813540 1 181.564 176.911 170.337 0 -7.67612
2555699 1 178.137 174.034 173.756 0 -7.37344
2583655 1 164.251 151.507 178.22 0 -6.27275
2586784 1 192.94 232.473 178.246 0 -6.26158
2641723 1 125.945 162.295 192.947 0 -6.25518
2728380 1 180.045 165.619 213.423 0 -7.577
2742780 1 176.842 165.587 216.523 0 -7.62432
1043580 1 179.983 165.635 216.612 0 -7.95408
2771340 1 180.128 162.317 219.675 0 -8.16047
2771341 1 183.368 162.465 219.868 0 -7.78389
2771460 1 180.112 165.467 219.568 0 -8.18937
2785740 1 180.152 162.377 222.85 0 -7.36167
1058701 1 186.472 193.111 222.971 0 -6.70884
1087848 1 138.692 199.352 229.306 0 -6.25493
2831106 1 197.376 221.663 234.405 0 -6.25498
2959258 1 172.178 183.067 260.991 0 -7.05467
2973657 1 170.751 180.557 264.23 0 -6.77315
1245658 1 173.998 183.07 262.813 0 -7.07454
3046500 1 180.192 203.777 280.308 0 -6.25662
3059460 1 178.25 165.491 285.437 0 -6.82194
1360381 1 180.173 167.408 286.69 0 -6.82864
3117780 1 183.365 183.709 296.265 0 -6.6283
3117782 1 186.593 187.744 296.732 0 -6.96394
2338985 1 192.637 153.007 122.349 0 -6.25666
668710 1 208.649 156.212 130.671 0 -6.22282
2382299 1 173.481 156.19 135.126 0 -6.25784
656462 1 183.137 213.799 133.826 0 -6.6491
684173 1 156.309 183.059 138.429 0 -6.28655
669898 1 170.275 188.143 137.303 0 -6.95296
682005 1 130.749 125.611 140.31 0 -6.25461
713100 1 176.756 188.068 146.662 0 -8.01083
726757 1 103.345 169.136 149.804 0 -6.54451
2440739 1 173.722 178.619 149.894 0 -8.51662
741779 1 173.608 184.73 149.808 0 -8.42533
727500 1 176.76 187.983 149.818 0 -8.7895
727620 1 176.739 191.12 149.766 0 -8.29819
741156 1 100.087 169.015 153.059 0 -6.82208
2498098 1 170.291 172.481 153.002 0 -7.60015
741537 1 170.492 175.421 152.986 0 -8.25977
727139 1 173.682 178.527 153.04 0 -8.83197
2483938 1 173.674 181.627 153.004 0 -8.83511
741780 1 176.798 184.834 153.027 0 -8.80989
741900 1 176.77 187.954 152.929 0 -8.83319
742021 1 179.94 191.2 153.021 0 -8.46343
770097 1 170.502 175.321 156.17 0 -8.50497
756060 1 173.672 178.49 156.163 0 -8.85644
755938 1 173.664 181.607 156.11 0 -8.8609
2484059 1 176.843 184.9 156.243 0 -8.81754
2527138 1 173.622 175.379 159.374 0 -8.59862
756057 1 173.67 178.478 159.278 0 -8.85761
2498337 1 176.785 181.651 159.322 0 -8.82987
784978 1 176.791 184.767 159.329 0 -8.37634
770941 1 179.685 194.481 159.403 0 -7.37462
2526898 1 173.59 175.274 162.374 0 -8.48874
2498459 1 176.796 181.67 162.43 0 -8.37469
799742 1 184.928 192.744 163.963 0 -6.60535
827820 1 176.661 175.306 165.682 0 -8.59876
813541 1 176.82 178.473 165.605 0 -8.4258
813660 1 179.86 178.574 168.808 0 -8.14322
815102 1 184.843 218.25 169.18 0 -6.65098
2555818 1 180.002 175.503 172.029 0 -7.67475
902328 1 138.422 240.369 188.094 0 -6.53571
916727 1 135.166 240.47 191.348 0 -6.82455
1014781 1 181.708 167.273 215.094 0 -7.18091
1043461 1 178.454 163.934 218.031 0 -8.02081
1044542 1 189.839 194.216 217.866 0 -7.07662
2770856 1 167.406 147.761 221.599 0 -7.06832
1057257 1 169.222 149.592 221.589 0 -7.09275
1057740 1 178.694 160.644 221.327 0 -7.42243
2786703 1 188.208 191.768 221.183 0 -7.1853
2729344 1 192.158 195.859 221.224 0 -7.00552
2785257 1 167.409 149.579 223.42 0 -7.04396
1172931 1 149.866 162.644 248.774 0 -6.25468
3117903 1 188.443 187.951 294.921 0 -7.26706
3130385 1 195.779 131.984 297.843 0 -6.25449
