ITEM: TIMESTEP
88217
ITEM: NUMBER OF ATOMS
70
ITEM: BOX BOUNDS pp pp pp
0 360
0 360
0 360
ITEM: ATOMS id type x y z
593817 1 168.75 84.75 123.75
597529 1 144.75 177.75 123.75
653446 1 135.75 135.75 135.75
696424 1 189.75 129.75 144.75
727856 1 165.75 195.75 150.75
794813 1 156.75 69.75 165.75
812341 1 180.75 147.75 168.75
812460 1 177.75 150.75 168.75
826981 1 180.75 153.75 171.75
899686 1 135.75 171.75 186.75
900071 1 210.75 180.75 186.75
941587 1 198.75 138.75 195.75
941707 1 198.75 141.75 195.75
956107 1 198.75 141.75 198.75
956227 1 198.75 144.75 198.75
970388 1 201.75 138.75 201.75
970508 1 201.75 141.75 201.75
970627 1 198.75 144.75 201.75
970746 1 195.75 147.75 201.75
984908 1 201.75 141.75 204.75
985027 1 198.75 144.75 204.75
985265 1 192.75 150.75 204.75
997881 1 240.75 105.75 207.75
999308 1 201.75 141.75 207.75
999427 1 198.75 144.75 207.75
999665 1 192.75 150.75 207.75
1013481 1 240.75 135.75 210.75
1054624 1 189.75 84.75 219.75
1054753 1 216.75 87.75 219.75
1069033 1 216.75 84.75 222.75
1069154 1 219.75 87.75 222.75
1070350 1 207.75 117.75 222.75
1228754 1 219.75 117.75 255.75
1257423 1 186.75 114.75 261.75
2481170 1 149.25 110.25 158.25
2497490 1 149.25 158.25 161.25
2526061 1 182.25 152.25 167.25
2540459 1 176.25 152.25 170.25
2540460 1 179.25 152.25 170.25
2540581 1 182.25 155.25 170.25
2554739 1 176.25 149.25 173.25
2554860 1 179.25 152.25 173.25
2611144 1 191.25 119.25 185.25
2655186 1 197.25 140.25 194.25
2655545 1 194.25 149.25 194.25
2668759 1 236.25 119.25 197.25
2669587 1 200.25 140.25 197.25
2669706 1 197.25 143.25 197.25
2669826 1 197.25 146.25 197.25
2683867 1 200.25 137.25 200.25
2683987 1 200.25 140.25 200.25
2684107 1 200.25 143.25 200.25
2684225 1 194.25 146.25 200.25
2684226 1 197.25 146.25 200.25
2684344 1 191.25 149.25 200.25
2698388 1 203.25 140.25 203.25
2698507 1 200.25 143.25 203.25
2698626 1 197.25 146.25 203.25
2698745 1 194.25 149.25 203.25
2698746 1 197.25 149.25 203.25
2698864 1 191.25 152.25 203.25
2710398 1 233.25 80.25 206.25
2712788 1 203.25 140.25 206.25
2712907 1 200.25 143.25 206.25
2713026 1 197.25 146.25 206.25
2713145 1 194.25 149.25 206.25
2724918 1 233.25 83.25 209.25
2739433 1 218.25 86.25 212.25
2783829 1 206.25 116.25 221.25
2783949 1 206.25 119.25 221.25
