ITEM: TIMESTEP
91218
ITEM: NUMBER OF ATOMS
69
ITEM: BOX BOUNDS pp pp pp
0 360
0 360
0 360
ITEM: ATOMS id type x y z
599474 1 219.75 225.75 123.75
628401 1 240.75 228.75 129.75
628518 1 231.75 231.75 129.75
641245 1 252.75 189.75 132.75
655886 1 255.75 195.75 135.75
669810 1 267.75 183.75 138.75
698491 1 270.75 180.75 144.75
713253 1 276.75 189.75 147.75
713611 1 270.75 198.75 147.75
727028 1 201.75 174.75 150.75
727140 1 177.75 177.75 150.75
729198 1 231.75 228.75 150.75
729318 1 231.75 231.75 150.75
755703 1 186.75 171.75 156.75
770457 1 168.75 180.75 159.75
772276 1 225.75 225.75 159.75
784132 1 153.75 162.75 162.75
784624 1 189.75 174.75 162.75
786317 1 228.75 216.75 162.75
799141 1 180.75 177.75 165.75
800955 1 222.75 222.75 165.75
800964 1 249.75 222.75 165.75
815599 1 234.75 228.75 168.75
815603 1 246.75 228.75 168.75
830241 1 240.75 234.75 171.75
841526 1 255.75 156.75 174.75
856042 1 243.75 159.75 177.75
873201 1 240.75 228.75 180.75
887961 1 240.75 237.75 183.75
930079 1 234.75 210.75 192.75
930680 1 237.75 225.75 192.75
958056 1 285.75 189.75 198.75
2382428 1 203.25 161.25 137.25
2395971 1 152.25 140.25 140.25
2398290 1 269.25 197.25 140.25
2426611 1 272.25 185.25 146.25
2428037 1 230.25 221.25 146.25
2439050 1 149.25 137.25 149.25
2439170 1 149.25 140.25 149.25
2440387 1 200.25 170.25 149.25
2442559 1 236.25 224.25 149.25
2442679 1 236.25 227.25 149.25
2453572 1 155.25 140.25 152.25
2455258 1 173.25 182.25 152.25
2469190 1 209.25 170.25 155.25
2469782 1 185.25 185.25 155.25
2483820 1 179.25 176.25 158.25
2484420 1 179.25 191.25 158.25
2498596 1 227.25 185.25 161.25
2512383 1 188.25 170.25 164.25
2514914 1 221.25 233.25 164.25
2529562 1 245.25 239.25 167.25
2541921 1 242.25 188.25 170.25
2543237 1 230.25 221.25 170.25
2543357 1 230.25 224.25 170.25
2543596 1 227.25 230.25 170.25
2543598 1 233.25 230.25 170.25
2543600 1 239.25 230.25 170.25
2598914 1 221.25 173.25 182.25
2598915 1 224.25 173.25 182.25
2599039 1 236.25 176.25 182.25
2615842 1 245.25 236.25 185.25
2628097 1 290.25 182.25 188.25
2642498 1 293.25 182.25 191.25
2657014 1 281.25 185.25 194.25
2669489 1 266.25 137.25 197.25
2683891 1 272.25 137.25 200.25
2685937 1 290.25 188.25 200.25
2714738 1 293.25 188.25 206.25
