ITEM: TIMESTEP
89589
ITEM: NUMBER OF ATOMS
69
ITEM: BOX BOUNDS pp pp pp
0 360
0 360
0 360
ITEM: ATOMS id type x y z
697009 1 144.75 144.75 144.75
754610 1 147.75 144.75 156.75
754851 1 150.75 150.75 156.75
813653 1 156.75 180.75 168.75
814973 1 156.75 213.75 168.75
827933 1 156.75 177.75 171.75
828053 1 156.75 180.75 171.75
854940 1 177.75 132.75 177.75
870064 1 189.75 150.75 180.75
898496 1 165.75 141.75 186.75
912535 1 162.75 132.75 189.75
913258 1 171.75 150.75 189.75
913375 1 162.75 153.75 189.75
913978 1 171.75 168.75 189.75
927177 1 168.75 138.75 192.75
956945 1 192.75 162.75 198.75
957180 1 177.75 168.75 198.75
999050 1 147.75 135.75 207.75
999298 1 171.75 141.75 207.75
1013450 1 147.75 135.75 210.75
1013570 1 147.75 138.75 210.75
1013940 1 177.75 147.75 210.75
1027971 1 150.75 138.75 213.75
1042486 1 135.75 141.75 216.75
1042738 1 171.75 147.75 216.75
1057614 1 159.75 159.75 219.75
1071648 1 141.75 150.75 222.75
1085094 1 159.75 126.75 225.75
1100215 1 162.75 144.75 228.75
1115322 1 123.75 162.75 231.75
1129492 1 153.75 156.75 234.75
1143288 1 141.75 141.75 237.75
1158153 1 96.75 153.75 240.75
1303020 1 177.75 174.75 270.75
1374783 1 186.75 168.75 285.75
2468210 1 149.25 146.25 155.25
2482490 1 149.25 143.25 158.25
2512492 1 155.25 173.25 164.25
2528333 1 158.25 209.25 167.25
2541289 1 146.25 173.25 170.25
2542852 1 155.25 212.25 170.25
2583658 1 173.25 152.25 179.25
2597451 1 152.25 137.25 182.25
2598417 1 170.25 161.25 182.25
2612102 1 185.25 143.25 185.25
2641137 1 170.25 149.25 191.25
2669332 1 155.25 134.25 197.25
2669695 1 164.25 143.25 197.25
2683732 1 155.25 134.25 200.25
2684940 1 179.25 164.25 200.25
2698861 1 182.25 152.25 203.25
2712524 1 131.25 134.25 206.25
2713139 1 176.25 149.25 206.25
2741331 1 152.25 134.25 212.25
2741688 1 143.25 143.25 212.25
2741930 1 149.25 149.25 212.25
2756088 1 143.25 143.25 215.25
2813208 1 143.25 131.25 227.25
2843083 1 128.25 158.25 233.25
2898769 1 146.25 110.25 245.25
2899492 1 155.25 128.25 245.25
2913169 1 146.25 110.25 248.25
2987820 1 179.25 176.25 263.25
2987821 1 182.25 176.25 263.25
3002343 1 188.25 179.25 266.25
3017104 1 191.25 188.25 269.25
3043860 1 179.25 137.25 275.25
3074104 1 191.25 173.25 281.25
3074105 1 194.25 173.25 281.25
