ITEM: TIMESTEP
87316
ITEM: NUMBER OF ATOMS
110
ITEM: BOX BOUNDS pp pp pp
0 360
0 360
0 360
ITEM: ATOMS id type x y z
640733 1 156.75 177.75 132.75
640852 1 153.75 180.75 132.75
696537 1 168.75 132.75 144.75
710817 1 168.75 129.75 147.75
710936 1 165.75 132.75 147.75
710937 1 168.75 132.75 147.75
711055 1 162.75 135.75 147.75
711056 1 165.75 135.75 147.75
783421 1 180.75 144.75 162.75
784613 1 156.75 174.75 162.75
811023 1 186.75 114.75 168.75
842218 1 171.75 174.75 174.75
885282 1 123.75 171.75 183.75
898614 1 159.75 144.75 186.75
898735 1 162.75 147.75 186.75
899802 1 123.75 174.75 186.75
912897 1 168.75 141.75 189.75
913136 1 165.75 147.75 189.75
913255 1 162.75 150.75 189.75
913256 1 165.75 150.75 189.75
913376 1 165.75 153.75 189.75
927177 1 168.75 138.75 192.75
927297 1 168.75 141.75 192.75
927417 1 168.75 144.75 192.75
927537 1 168.75 147.75 192.75
927657 1 168.75 150.75 192.75
927777 1 168.75 153.75 192.75
929819 1 174.75 204.75 192.75
941579 1 174.75 138.75 195.75
941698 1 171.75 141.75 195.75
941818 1 171.75 144.75 195.75
941938 1 171.75 147.75 195.75
942058 1 171.75 150.75 195.75
953840 1 237.75 84.75 198.75
956219 1 174.75 144.75 198.75
956339 1 174.75 147.75 198.75
956459 1 174.75 150.75 198.75
956578 1 171.75 153.75 198.75
956579 1 174.75 153.75 198.75
969548 1 201.75 117.75 201.75
970740 1 177.75 147.75 201.75
970859 1 174.75 150.75 201.75
1013101 1 180.75 126.75 210.75
1014062 1 183.75 150.75 210.75
1014181 1 180.75 153.75 210.75
1028461 1 180.75 150.75 213.75
1028462 1 183.75 150.75 213.75
1028582 1 183.75 153.75 213.75
1041064 1 189.75 105.75 216.75
1042742 1 183.75 147.75 216.75
1042862 1 183.75 150.75 216.75
1042982 1 183.75 153.75 216.75
1056902 1 183.75 141.75 219.75
1057022 1 183.75 144.75 219.75
1057263 1 186.75 150.75 219.75
1057383 1 186.75 153.75 219.75
1072512 1 213.75 171.75 222.75
1141739 1 174.75 102.75 237.75
1158916 1 225.75 171.75 240.75
2438697 1 170.25 128.25 149.25
2438817 1 170.25 131.25 149.25
2438818 1 173.25 131.25 149.25
2438936 1 167.25 134.25 149.25
2439055 1 164.25 137.25 149.25
2511050 1 149.25 137.25 164.25
2525570 1 149.25 140.25 167.25
2525689 1 146.25 143.25 167.25
2540090 1 149.25 143.25 170.25
2540209 1 146.25 146.25 170.25
2598757 1 110.25 170.25 182.25
2612841 1 242.25 161.25 185.25
2613162 1 125.25 170.25 185.25
2626495 1 164.25 143.25 188.25
2626615 1 164.25 146.25 188.25
2626616 1 167.25 146.25 188.25
2626735 1 164.25 149.25 188.25
2640896 1 167.25 143.25 191.25
2641016 1 167.25 146.25 191.25
2641136 1 167.25 149.25 191.25
2641256 1 167.25 152.25 191.25
2641375 1 164.25 155.25 191.25
2641376 1 167.25 155.25 191.25
2653263 1 188.25 92.25 194.25
2655297 1 170.25 143.25 194.25
2655417 1 170.25 146.25 194.25
2655537 1 170.25 149.25 194.25
2655657 1 170.25 152.25 194.25
2669698 1 173.25 143.25 197.25
2669699 1 176.25 143.25 197.25
2669818 1 173.25 146.25 197.25
2669938 1 173.25 149.25 197.25
2670058 1 173.25 152.25 197.25
2682062 1 185.25 92.25 200.25
2684219 1 176.25 146.25 200.25
2684339 1 176.25 149.25 200.25
2684578 1 173.25 155.25 200.25
2697427 1 200.25 116.25 203.25
2725998 1 233.25 110.25 209.25
2726119 1 236.25 113.25 209.25
2756341 1 182.25 149.25 215.25
2756582 1 185.25 155.25 215.25
2770501 1 182.25 143.25 218.25
2770621 1 182.25 146.25 218.25
2770622 1 185.25 146.25 218.25
2770742 1 185.25 149.25 218.25
2770862 1 185.25 152.25 218.25
2855339 1 176.25 104.25 236.25
2886915 1 224.25 173.25 242.25
2899754 1 221.25 134.25 245.25
2901314 1 221.25 173.25 245.25
