ITEM: TIMESTEP
90264
ITEM: NUMBER OF ATOMS
66
ITEM: BOX BOUNDS pp pp pp
0 360
0 360
0 360
ITEM: ATOMS id type x y z
700376 1 165.75 228.75 144.75
709611 1 150.75 99.75 147.75
712003 1 126.75 159.75 147.75
714283 1 126.75 216.75 147.75
727618 1 171.75 189.75 150.75
727737 1 168.75 192.75 150.75
755454 1 159.75 165.75 156.75
769855 1 162.75 165.75 159.75
769974 1 159.75 168.75 159.75
811135 1 162.75 117.75 168.75
814503 1 186.75 201.75 168.75
845570 1 147.75 258.75 174.75
929333 1 156.75 192.75 192.75
943739 1 174.75 192.75 195.75
985244 1 129.75 150.75 204.75
1000726 1 135.75 177.75 207.75
1058569 1 144.75 183.75 219.75
1074880 1 117.75 231.75 222.75
1089907 1 198.75 246.75 225.75
1104894 1 159.75 261.75 228.75
1117133 1 156.75 207.75 231.75
1117252 1 153.75 210.75 231.75
1117254 1 159.75 210.75 231.75
1117494 1 159.75 216.75 231.75
1131772 1 153.75 213.75 234.75
1131774 1 159.75 213.75 234.75
1131893 1 156.75 216.75 234.75
1146173 1 156.75 213.75 237.75
1190200 1 117.75 234.75 246.75
1204600 1 117.75 234.75 249.75
1233409 1 144.75 234.75 255.75
1318125 1 132.75 192.75 273.75
1360362 1 123.75 168.75 282.75
1362539 1 174.75 222.75 282.75
2297453 1 158.25 197.25 119.25
2426697 1 170.25 188.25 146.25
2426816 1 167.25 191.25 146.25
2441096 1 167.25 188.25 149.25
2483078 1 113.25 158.25 158.25
2483213 1 158.25 161.25 158.25
2486471 1 212.25 242.25 158.25
2497017 1 170.25 146.25 161.25
2497852 1 155.25 167.25 161.25
2511418 1 173.25 146.25 164.25
2512134 1 161.25 164.25 164.25
2539134 1 161.25 119.25 170.25
2542382 1 185.25 200.25 170.25
2642938 1 173.25 194.25 191.25
2657218 1 173.25 191.25 194.25
2657337 1 170.25 194.25 194.25
2698843 1 128.25 152.25 203.25
2743861 1 182.25 197.25 212.25
2786814 1 161.25 191.25 221.25
2816345 1 194.25 209.25 227.25
2818494 1 161.25 263.25 227.25
2830972 1 155.25 215.25 230.25
2845254 1 161.25 212.25 233.25
2859774 1 161.25 215.25 236.25
2859893 1 158.25 218.25 236.25
2874052 1 155.25 212.25 239.25
2902971 1 152.25 215.25 245.25
2918079 1 116.25 233.25 248.25
2918080 1 119.25 233.25 248.25
2931425 1 194.25 206.25 251.25
2973281 1 122.25 173.25 260.25
3004022 1 185.25 221.25 266.25
