ITEM: TIMESTEP
87319
ITEM: NUMBER OF ATOMS
55
ITEM: BOX BOUNDS pp pp pp
0 360
0 360
0 360
ITEM: ATOMS id type x y z c_myKE c_myPE
2236735 1 162.287 114.463 101.677 0 -6.25567
2283068 1 205.704 197.416 113.035 0 -6.60186
569349 1 205.78 194.214 116.371 0 -6.91716
569469 1 208.88 197.305 116.37 0 -6.90955
2340311 1 216.577 186.524 126.036 0 -6.26136
2384467 1 202.652 213.206 135.906 0 -6.77781
2398748 1 204.078 209.967 138.408 0 -7.06064
2398749 1 206.58 213.206 139.833 0 -6.78245
2438807 1 136.773 127.234 145.083 0 -6.25366
2498448 1 139.965 183.405 161.051 0 -6.25336
2539503 1 189.615 124.24 170.727 0 -6.54268
2583903 1 187.736 161.003 170.523 0 -6.56898
2555103 1 191.099 160.994 173.897 0 -6.57121
2569624 1 187.777 164.303 173.851 0 -7.51973
868017 1 165.591 95.4415 178.394 0 -8.49664
868138 1 168.764 95.2943 178.333 0 -8.26483
2581735 1 162.489 98.5234 178.303 0 -7.44852
2595777 1 168.64 92.1859 181.543 0 -8.51389
896697 1 171.835 92.1741 181.484 0 -7.6053
2595896 1 165.565 95.4234 181.558 0 -8.76913
2596135 1 162.362 98.6248 181.432 0 -8.2067
2596136 1 165.516 98.5405 181.473 0 -8.41822
2610293 1 157.727 90.6955 183.396 0 -6.68986
2610654 1 159.053 101.51 184.546 0 -7.41684
2614864 1 191.001 213.373 183.391 0 -6.25188
911576 1 162.192 101.601 187.545 0 -7.4253
2671732 1 154.666 194.236 197.385 0 -6.25196
2669952 1 216.521 145.152 199.316 0 -6.2638
626818 1 170.261 191.365 125.611 0 -6.25312
671352 1 216.87 224.505 135.184 0 -6.25544
709616 1 165.825 95.697 143.471 0 -6.26149
740355 1 224.497 146.724 151.127 0 -6.25309
811504 1 191.383 122.468 169.144 0 -6.8245
2550894 1 157.821 45.682 173.748 0 -7.05492
837415 1 159.638 47.506 173.743 0 -7.07149
837414 1 157.818 47.5047 175.566 0 -7.07017
853737 1 167.234 96.8135 176.632 0 -7.40394
2581617 1 167.171 93.8601 179.986 0 -8.73617
882298 1 170.279 93.705 179.929 0 -8.30298
2612457 1 170.261 156.315 179.836 0 -6.24926
2610178 1 168.82 89.2227 181.706 0 -7.40266
2610416 1 163.959 93.8796 183.214 0 -8.37685
882297 1 165.625 92.3017 181.615 0 -8.32305
882535 1 160.707 96.9625 183.079 0 -8.51285
882536 1 162.48 95.4777 181.639 0 -8.64139
896936 1 162.441 95.6195 184.836 0 -8.15704
897289 1 141.548 108.431 186.2 0 -6.82886
911569 1 141.477 105.165 189.456 0 -6.51567
939177 1 169.01 70.2141 195.763 0 -6.26607
2497253 1 175.532 162.671 194.55 0 -6.64224
942779 1 176.455 167.253 199.114 0 -6.69364
2697286 1 132.011 108.451 204.077 0 -6.25586
2727672 1 216.895 154.377 211.745 0 -6.26361
1030129 1 141.552 192.635 214.929 0 -6.25366
1069260 1 176.657 86.1335 224.485 0 -6.25067
