ITEM: TIMESTEP
87596
ITEM: NUMBER OF ATOMS
49
ITEM: BOX BOUNDS pp pp pp
0 360
0 360
0 360
ITEM: ATOMS id type x y z
683461 1 180.75 165.75 141.75
697009 1 144.75 144.75 144.75
725809 1 144.75 144.75 150.75
726649 1 144.75 165.75 150.75
740088 1 141.75 141.75 153.75
754489 1 144.75 141.75 156.75
754490 1 147.75 141.75 156.75
754971 1 150.75 153.75 156.75
755101 1 180.75 156.75 156.75
798896 1 165.75 171.75 165.75
812326 1 135.75 147.75 168.75
955846 1 135.75 135.75 198.75
955965 1 132.75 138.75 198.75
1001086 1 135.75 186.75 207.75
1043679 1 114.75 171.75 216.75
1057351 1 90.75 153.75 219.75
1058558 1 111.75 183.75 219.75
1060002 1 123.75 219.75 219.75
1086866 1 75.75 171.75 225.75
1100801 1 120.75 159.75 228.75
1115318 1 111.75 162.75 231.75
1115556 1 105.75 168.75 231.75
1115676 1 105.75 171.75 231.75
1130317 1 108.75 177.75 234.75
1143876 1 105.75 156.75 237.75
1158744 1 69.75 168.75 240.75
1158873 1 96.75 171.75 240.75
1172555 1 102.75 153.75 243.75
2411101 1 182.25 158.25 143.25
2468700 1 179.25 158.25 155.25
2511660 1 179.25 152.25 164.25
2525815 1 164.25 146.25 167.25
2525822 1 185.25 146.25 167.25
2526539 1 176.25 164.25 167.25
2541645 1 134.25 182.25 170.25
2613883 1 128.25 188.25 185.25
2771557 1 110.25 170.25 218.25
2785585 1 74.25 161.25 221.25
2785598 1 113.25 161.25 221.25
2800597 1 110.25 176.25 224.25
2814161 1 122.25 155.25 227.25
2816081 1 122.25 203.25 227.25
2829030 1 89.25 167.25 230.25
2829037 1 110.25 167.25 230.25
2829154 1 101.25 170.25 230.25
2843308 1 83.25 164.25 233.25
2858203 1 128.25 176.25 236.25
2871996 1 107.25 161.25 239.25
2887120 1 119.25 179.25 242.25
