ITEM: TIMESTEP
88000
ITEM: NUMBER OF ATOMS
74
ITEM: BOX BOUNDS pp pp pp
0 360
0 360
0 360
ITEM: ATOMS id type x y z c_myKE c_myPE
2381324 1 127.506 132.428 135.397 0.186124 -5.8572
2453933 1 156.157 148.154 149.489 0.0038138 -5.89256
2441194 1 97.2783 193.11 148.178 0.0491229 -6.07406
2512242 1 122.712 167.58 162.466 0.157903 -6.81713
2512364 1 129.08 170.549 162.342 0.130311 -7.37961
2526638 1 106.927 165.547 165.526 0.0622982 -6.18714
2526522 1 122.756 164.211 165.354 0.0499159 -6.51715
2526644 1 129.178 167.648 165.622 0.0276139 -6.9421
2526764 1 128.94 170.644 165.685 0.292266 -8.14082
2526883 1 125.673 173.787 165.672 0.209715 -7.80844
2541164 1 128.82 170.607 168.785 0.289483 -7.34683
2541284 1 129.038 173.849 168.585 0.100697 -7.93742
884683 1 123.059 155.929 181.293 0.215833 -6.61814
2598753 1 92.3681 168.634 181.463 0.134826 -6.36751
2626397 1 234.563 139.276 188.025 0.130326 -6.9868
2684804 1 129.181 159.404 200.421 0.0504078 -6.17092
2712657 1 173.782 135.485 202.464 0.0525545 -7.23621
986225 1 194.221 177.075 203.751 0.740658 -5.92209
984417 1 170.639 122.953 205.176 0.0784724 -7.94645
998939 1 170.442 129.062 205.587 0.0438166 -8.56704
2712299 1 173.951 128.855 205.378 0.120744 -8.06484
998819 1 170.722 132.019 205.569 0.100036 -8.39603
997256 1 164.286 82.8051 209.771 0.316853 -6.76727
998698 1 173.935 122.623 208.823 0.307556 -7.72524
2726936 1 167.335 125.842 208.71 0.114246 -7.45895
2683619 1 170.669 125.85 208.675 0.0719157 -8.1498
2741457 1 170.486 129.049 208.678 0.0559687 -8.05509
2712536 1 170.605 132.022 208.685 0.146919 -8.20029
2740619 1 174.997 111.735 213.29 0.132415 -7.89354
2755020 1 178.338 111.188 213.202 0.0168348 -7.80616
2726337 1 170.61 116.937 211.883 0.297538 -7.46878
2726339 1 173.782 116.536 211.717 0.127168 -7.7741
2726578 1 173.786 119.428 211.954 0.100769 -8.40169
2726819 1 173.733 122.508 211.943 0.0355497 -7.42149
2726700 1 176.996 122.443 212.096 0.171924 -7.76171
2755019 1 173.68 110.328 215.25 0.114907 -8.48932
2754898 1 173.768 110.046 218.353 0.00704136 -7.54541
2769419 1 176.906 109.876 218.143 0.0803585 -8.34818
2755018 1 173.732 112.896 218.306 0.166137 -7.62424
2783700 1 178.559 108.02 222.897 0.146298 -7.50061
2797979 1 178.519 104.769 225.84 0.34022 -7.33587
2797980 1 180.296 106.66 224.733 0.141326 -7.57989
2855581 1 183.49 106.548 239.115 0.033366 -6.79386
2972098 1 173.665 141.928 264.746 0.164228 -6.22626
2483924 1 130.561 180.18 154.235 0.0292568 -5.9467
784118 1 108.616 160.877 160.639 0.0434258 -7.6926
2540797 1 105.247 160.555 163.913 0.112413 -6.66272
798884 1 127.335 172.149 163.929 0.286529 -7.7696
796848 1 140.656 116.343 166.016 0.147111 -6.30405
813284 1 127.336 172.185 167.107 0.0787192 -8.0992
811128 1 140.083 113.029 168.912 0.0808749 -6.51271
827685 1 130.507 172.188 170.391 0.283137 -6.76294
886839 1 109.779 214.006 183.011 0.314199 -6.64119
898398 1 235.888 137.055 185.786 0.184169 -6.5303
912798 1 236.222 137.372 189.645 0.0573567 -6.62796
2685426 1 195.099 176.882 200.72 0.164743 -6.64915
2686502 1 189.562 205.541 200.891 0.182156 -7.17286
955738 1 165.875 130.815 203.783 0.0368943 -7.91047
970259 1 172.249 130.556 203.738 0.154771 -8.56031
955739 1 172.11 133.748 204.048 0.318233 -7.76533
2697659 1 175.402 118.252 206.879 0.356019 -7.2024
2712298 1 172.423 127.263 207.157 0.126233 -8.64434
998940 1 175.22 127.37 207.161 0.170215 -7.70528
970496 1 165.712 133.845 206.964 0.548346 -7.52111
2741218 1 172.311 136.884 206.906 0.022895 -7.61585
2712059 1 175.57 118.042 210.248 0.16103 -7.618
2698374 1 165.94 136.929 210.279 0.112018 -6.3803
1027020 1 176.562 110.066 214.781 0.193159 -7.73718
1012859 1 172.227 114.904 213.198 0.0270365 -8.05157
1041780 1 175.376 114.572 216.899 0.154373 -8.22083
1070220 1 177.109 109.452 221.019 0.123215 -8.1194
1069846 1 134.221 100.127 224.304 0.304203 -6.56119
1173787 1 200.934 184.996 248.532 0.0297583 -6.20311
1214575 1 159.583 121.459 258.648 0.141817 -6.57664
