ITEM: TIMESTEP
87315
ITEM: NUMBER OF ATOMS
81
ITEM: BOX BOUNDS pp pp pp
0 360
0 360
0 360
ITEM: ATOMS id type x y z
769248 1 141.75 150.75 159.75
769368 1 141.75 153.75 159.75
812448 1 141.75 150.75 168.75
840305 1 192.75 126.75 174.75
840663 1 186.75 135.75 174.75
855774 1 159.75 153.75 177.75
869221 1 180.75 129.75 180.75
913117 1 108.75 147.75 189.75
941343 1 186.75 132.75 195.75
941676 1 105.75 141.75 195.75
942034 1 99.75 150.75 195.75
955375 1 162.75 123.75 198.75
955504 1 189.75 126.75 198.75
970354 1 99.75 138.75 201.75
970593 1 96.75 144.75 201.75
984995 1 102.75 144.75 204.75
985138 1 171.75 147.75 204.75
1013944 1 189.75 147.75 210.75
1042470 1 87.75 141.75 216.75
1042590 1 87.75 144.75 216.75
1043691 1 150.75 171.75 216.75
1043805 1 132.75 174.75 216.75
1044168 1 141.75 183.75 216.75
1073818 1 171.75 204.75 222.75
1087128 1 141.75 177.75 225.75
1115571 1 150.75 168.75 231.75
1117144 1 189.75 207.75 231.75
1131780 1 177.75 213.75 234.75
1173757 1 108.75 183.75 243.75
1188660 1 177.75 195.75 246.75
1202319 1 114.75 177.75 249.75
1202937 1 168.75 192.75 249.75
1203299 1 174.75 201.75 249.75
1216005 1 132.75 159.75 252.75
1216365 1 132.75 168.75 252.75
1216477 1 108.75 171.75 252.75
1259324 1 129.75 162.75 261.75
1288955 1 102.75 183.75 267.75
2425008 1 143.25 146.25 146.25
2439409 1 146.25 146.25 149.25
2453809 1 146.25 146.25 152.25
2540323 1 128.25 149.25 170.25
2540454 1 161.25 152.25 170.25
2555091 1 152.25 158.25 173.25
2555206 1 137.25 161.25 173.25
2582820 1 179.25 131.25 179.25
2611624 1 191.25 131.25 185.25
2612098 1 173.25 143.25 185.25
2640060 1 179.25 122.25 191.25
2655036 1 107.25 137.25 194.25
2656016 1 167.25 161.25 194.25
2669917 1 110.25 149.25 197.25
2683144 1 191.25 119.25 200.25
2683740 1 179.25 134.25 200.25
2697785 1 194.25 125.25 203.25
2698473 1 98.25 143.25 203.25
2712873 1 98.25 143.25 206.25
2713266 1 197.25 152.25 206.25
2728129 1 146.25 164.25 209.25
2728490 1 149.25 173.25 209.25
2756926 1 137.25 164.25 215.25
2757168 1 143.25 170.25 215.25
2771451 1 152.25 167.25 218.25
2784639 1 116.25 137.25 221.25
2785973 1 158.25 170.25 221.25
2786207 1 140.25 176.25 221.25
2786450 1 149.25 182.25 221.25
2787771 1 152.25 215.25 221.25
2800493 1 158.25 173.25 224.25
2801817 1 170.25 206.25 224.25
2814528 1 143.25 164.25 227.25
2843936 1 167.25 179.25 233.25
2872238 1 113.25 167.25 239.25
2873097 1 170.25 188.25 239.25
2888341 1 182.25 209.25 242.25
2902739 1 176.25 209.25 245.25
2902859 1 176.25 212.25 245.25
2931778 1 173.25 215.25 251.25
2945217 1 170.25 191.25 254.25
2959121 1 122.25 179.25 257.25
3017461 1 182.25 197.25 269.25
