ITEM: TIMESTEP
95000
ITEM: NUMBER OF ATOMS
98
ITEM: BOX BOUNDS pp pp pp
0 360
0 360
0 360
ITEM: ATOMS id type x y z
599718 1 231.75 231.75 123.75
697855 1 162.75 165.75 144.75
697856 1 165.75 165.75 144.75
700027 1 198.75 219.75 144.75
726050 1 147.75 150.75 150.75
743458 1 171.75 225.75 153.75
757746 1 195.75 222.75 156.75
772507 1 198.75 231.75 159.75
783888 1 141.75 156.75 162.75
786306 1 195.75 216.75 162.75
801066 1 195.75 225.75 165.75
814982 1 183.75 213.75 168.75
815469 1 204.75 225.75 168.75
829146 1 195.75 207.75 171.75
829986 1 195.75 228.75 171.75
830827 1 198.75 249.75 171.75
843786 1 195.75 213.75 174.75
843906 1 195.75 216.75 174.75
843907 1 198.75 216.75 174.75
843909 1 204.75 216.75 174.75
844026 1 195.75 219.75 174.75
844146 1 195.75 222.75 174.75
858306 1 195.75 216.75 177.75
858307 1 198.75 216.75 177.75
858544 1 189.75 222.75 177.75
858547 1 198.75 222.75 177.75
858549 1 204.75 222.75 177.75
872825 1 192.75 219.75 180.75
886742 1 183.75 207.75 183.75
887106 1 195.75 216.75 183.75
887226 1 195.75 219.75 183.75
887467 1 198.75 225.75 183.75
888187 1 198.75 243.75 183.75
901506 1 195.75 216.75 186.75
901626 1 195.75 219.75 186.75
902348 1 201.75 237.75 186.75
915665 1 192.75 210.75 189.75
916028 1 201.75 219.75 189.75
916148 1 201.75 222.75 189.75
930670 1 207.75 225.75 192.75
931148 1 201.75 237.75 192.75
944229 1 204.75 204.75 195.75
944706 1 195.75 216.75 195.75
945186 1 195.75 228.75 195.75
988262 1 183.75 225.75 204.75
1047565 1 252.75 267.75 216.75
1090763 1 246.75 267.75 225.75
1105877 1 228.75 285.75 228.75
2382175 1 164.25 155.25 137.25
2454170 1 149.25 155.25 152.25
2454530 1 149.25 164.25 152.25
2456826 1 197.25 221.25 152.25
2467605 1 134.25 131.25 155.25
2468329 1 146.25 149.25 155.25
2482366 1 137.25 140.25 158.25
2482728 1 143.25 149.25 158.25
2514543 1 188.25 224.25 164.25
2543227 1 200.25 221.25 170.25
2556304 1 191.25 188.25 173.25
2557386 1 197.25 215.25 173.25
2557499 1 176.25 218.25 173.25
2557624 1 191.25 221.25 173.25
2557752 1 215.25 224.25 173.25
2571785 1 194.25 215.25 176.25
2571786 1 197.25 215.25 176.25
2571906 1 197.25 218.25 176.25
2572026 1 197.25 221.25 176.25
2572027 1 200.25 221.25 176.25
2572144 1 191.25 224.25 176.25
2572387 1 200.25 230.25 176.25
2572870 1 209.25 242.25 176.25
2586426 1 197.25 221.25 179.25
2587746 1 197.25 254.25 179.25
2600226 1 197.25 206.25 182.25
2615105 1 194.25 218.25 185.25
2615106 1 197.25 218.25 185.25
2615228 1 203.25 221.25 185.25
2615586 1 197.25 230.25 185.25
2615949 1 206.25 239.25 185.25
2616428 1 203.25 251.25 185.25
2629147 1 200.25 209.25 188.25
2629505 1 194.25 218.25 188.25
2629506 1 197.25 218.25 188.25
2629869 1 206.25 227.25 188.25
2630350 1 209.25 239.25 188.25
2643426 1 197.25 206.25 191.25
2644027 1 200.25 221.25 191.25
2644028 1 203.25 221.25 191.25
2659751 1 212.25 254.25 194.25
2659870 1 209.25 257.25 194.25
2671983 1 188.25 200.25 197.25
2672826 1 197.25 221.25 197.25
2686502 1 185.25 203.25 200.25
2688429 1 206.25 251.25 200.25
2747240 1 239.25 281.25 212.25
2761160 1 239.25 269.25 215.25
2761280 1 239.25 272.25 215.25
2775805 1 254.25 275.25 218.25
