ITEM: TIMESTEP
88000
ITEM: NUMBER OF ATOMS
69
ITEM: BOX BOUNDS pp pp pp
0 360
0 360
0 360
ITEM: ATOMS id type x y z
551680 1 117.75 111.75 114.75
610373 1 156.75 138.75 126.75
610492 1 153.75 141.75 126.75
653567 1 138.75 138.75 135.75
684417 1 168.75 189.75 141.75
742968 1 141.75 213.75 153.75
770833 1 216.75 189.75 159.75
785234 1 219.75 189.75 162.75
843296 1 165.75 201.75 174.75
857918 1 111.75 207.75 177.75
886270 1 207.75 195.75 183.75
897651 1 150.75 120.75 186.75
912050 1 147.75 120.75 189.75
927531 1 150.75 147.75 192.75
941931 1 150.75 147.75 195.75
958992 1 213.75 213.75 198.75
1058590 1 207.75 183.75 219.75
1058709 1 204.75 186.75 219.75
1072365 1 132.75 168.75 222.75
1072484 1 129.75 171.75 222.75
1073228 1 201.75 189.75 222.75
1086885 1 132.75 171.75 225.75
1087627 1 198.75 189.75 225.75
1102396 1 225.75 198.75 228.75
1116056 1 165.75 180.75 231.75
1116415 1 162.75 189.75 231.75
1116796 1 225.75 198.75 231.75
1157934 1 159.75 147.75 240.75
1158054 1 159.75 150.75 240.75
1158055 1 162.75 150.75 240.75
1171734 1 159.75 132.75 243.75
1172964 1 249.75 162.75 243.75
1216010 1 147.75 159.75 252.75
1288136 1 165.75 162.75 267.75
1404174 1 159.75 183.75 291.75
1404181 1 180.75 183.75 291.75
1404300 1 177.75 186.75 291.75
2424658 1 173.25 137.25 146.25
2424779 1 176.25 140.25 146.25
2455850 1 149.25 197.25 152.25
2527625 1 194.25 191.25 167.25
2571637 1 110.25 212.25 176.25
2585100 1 179.25 188.25 179.25
2585448 1 143.25 197.25 179.25
2596740 1 179.25 119.25 182.25
2600196 1 107.25 206.25 182.25
2614965 1 134.25 215.25 185.25
2640769 1 146.25 140.25 191.25
2641723 1 128.25 164.25 191.25
2655289 1 146.25 143.25 194.25
2655411 1 152.25 146.25 194.25
2656124 1 131.25 164.25 194.25
2656243 1 128.25 167.25 194.25
2686871 1 212.25 212.25 200.25
2786588 1 203.25 185.25 221.25
2786709 1 206.25 188.25 221.25
2800987 1 200.25 185.25 224.25
2800989 1 206.25 185.25 224.25
2801106 1 197.25 188.25 224.25
2801107 1 200.25 188.25 224.25
2801227 1 200.25 191.25 224.25
2815875 1 224.25 197.25 227.25
2857613 1 158.25 161.25 236.25
2886053 1 158.25 152.25 242.25
2900454 1 161.25 152.25 245.25
2944010 1 149.25 161.25 254.25
3117546 1 197.25 179.25 290.25
3130618 1 173.25 146.25 293.25
3145132 1 155.25 149.25 296.25
