ITEM: TIMESTEP
90000
ITEM: NUMBER OF ATOMS
76
ITEM: BOX BOUNDS pp pp pp
0 360
0 360
0 360
ITEM: ATOMS id type x y z
424268 1 201.75 165.75 87.75
424387 1 198.75 168.75 87.75
511985 1 192.75 198.75 105.75
538124 1 129.75 132.75 111.75
554214 1 159.75 174.75 114.75
555770 1 147.75 213.75 114.75
568394 1 219.75 168.75 117.75
569576 1 165.75 198.75 117.75
581952 1 213.75 147.75 120.75
638693 1 156.75 126.75 132.75
639780 1 177.75 153.75 132.75
711183 1 186.75 138.75 147.75
724028 1 201.75 99.75 150.75
727267 1 198.75 180.75 150.75
812581 1 180.75 153.75 168.75
854598 1 231.75 123.75 177.75
868759 1 234.75 117.75 180.75
868760 1 237.75 117.75 180.75
868877 1 228.75 120.75 180.75
868878 1 231.75 120.75 180.75
868879 1 234.75 120.75 180.75
868998 1 231.75 123.75 180.75
883037 1 228.75 114.75 183.75
883038 1 231.75 114.75 183.75
883039 1 234.75 114.75 183.75
883040 1 237.75 114.75 183.75
883157 1 228.75 117.75 183.75
883158 1 231.75 117.75 183.75
883159 1 234.75 117.75 183.75
883278 1 231.75 120.75 183.75
883397 1 228.75 123.75 183.75
896962 1 243.75 102.75 186.75
897082 1 243.75 105.75 186.75
897083 1 246.75 105.75 186.75
897199 1 234.75 108.75 186.75
897200 1 237.75 108.75 186.75
897201 1 240.75 108.75 186.75
897318 1 231.75 111.75 186.75
897319 1 234.75 111.75 186.75
897320 1 237.75 111.75 186.75
897931 1 270.75 126.75 186.75
911480 1 237.75 105.75 189.75
911481 1 240.75 105.75 189.75
941598 1 231.75 138.75 195.75
2295431 1 212.25 146.25 119.25
2352172 1 155.25 125.25 131.25
2426363 1 248.25 179.25 146.25
2526056 1 167.25 152.25 167.25
2538205 1 254.25 95.25 170.25
2553802 1 245.25 125.25 173.25
2582359 1 236.25 119.25 179.25
2582478 1 233.25 122.25 179.25
2596639 1 236.25 116.25 182.25
2596640 1 239.25 116.25 182.25
2596758 1 233.25 119.25 182.25
2610800 1 239.25 110.25 185.25
2610917 1 230.25 113.25 185.25
2610918 1 233.25 113.25 185.25
2610919 1 236.25 113.25 185.25
2611036 1 227.25 116.25 185.25
2611410 1 269.25 125.25 185.25
2624961 1 242.25 104.25 188.25
2625079 1 236.25 107.25 188.25
2625080 1 239.25 107.25 188.25
2625081 1 242.25 107.25 188.25
2625198 1 233.25 110.25 188.25
2669135 1 284.25 128.25 197.25
2711351 1 212.25 104.25 206.25
2725750 1 209.25 104.25 209.25
2753971 1 272.25 89.25 215.25
2781566 1 257.25 59.25 221.25
2811320 1 239.25 83.25 227.25
2825369 1 266.25 74.25 230.25
2826915 1 224.25 113.25 230.25
2841195 1 224.25 110.25 233.25
2841314 1 221.25 113.25 233.25
