ITEM: TIMESTEP
93000
ITEM: NUMBER OF ATOMS
70
ITEM: BOX BOUNDS pp pp pp
0 360
0 360
0 360
ITEM: ATOMS id type x y z
640502 1 183.75 171.75 132.75
697009 1 144.75 144.75 144.75
712743 1 186.75 177.75 147.75
727020 1 177.75 174.75 150.75
769009 1 144.75 144.75 159.75
784254 1 159.75 165.75 162.75
826980 1 177.75 153.75 171.75
827807 1 138.75 174.75 171.75
828056 1 165.75 180.75 171.75
856734 1 159.75 177.75 177.75
870997 1 108.75 174.75 180.75
885289 1 144.75 171.75 183.75
885406 1 135.75 174.75 183.75
886735 1 162.75 207.75 183.75
899921 1 120.75 177.75 186.75
899930 1 147.75 177.75 186.75
913962 1 123.75 168.75 189.75
914204 1 129.75 174.75 189.75
915780 1 177.75 213.75 189.75
928243 1 126.75 165.75 192.75
929081 1 120.75 186.75 192.75
929090 1 147.75 186.75 192.75
930182 1 183.75 213.75 192.75
945060 1 177.75 225.75 195.75
974218 1 171.75 234.75 201.75
985726 1 135.75 162.75 204.75
986086 1 135.75 171.75 204.75
1003139 1 174.75 237.75 207.75
1003259 1 174.75 240.75 207.75
1014891 1 150.75 171.75 210.75
1029293 1 156.75 171.75 213.75
1042494 1 159.75 141.75 216.75
1043331 1 150.75 162.75 216.75
1057263 1 186.75 150.75 219.75
1057504 1 189.75 156.75 219.75
1057751 1 210.75 162.75 219.75
1057972 1 153.75 168.75 219.75
1071659 1 174.75 150.75 222.75
1071902 1 183.75 156.75 222.75
1086651 1 150.75 165.75 225.75
1086689 1 264.75 165.75 225.75
1086808 1 261.75 168.75 225.75
1100944 1 189.75 162.75 228.75
1101073 1 216.75 165.75 228.75
2468449 1 146.25 152.25 155.25
2483206 1 137.25 161.25 158.25
2599002 1 125.25 176.25 182.25
2627684 1 131.25 173.25 188.25
2627685 1 134.25 173.25 188.25
2627917 1 110.25 179.25 188.25
2656604 1 131.25 176.25 194.25
2656839 1 116.25 182.25 194.25
2657323 1 128.25 194.25 194.25
2670515 1 104.25 164.25 197.25
2685168 1 143.25 170.25 200.25
2685276 1 107.25 173.25 200.25
2685284 1 131.25 173.25 200.25
2685285 1 134.25 173.25 200.25
2685393 1 98.25 176.25 200.25
2699928 1 143.25 179.25 203.25
2713843 1 128.25 167.25 206.25
2756950 1 209.25 164.25 215.25
2760177 1 170.25 245.25 215.25
2784894 1 161.25 143.25 221.25
2800043 1 248.25 161.25 224.25
2800046 1 257.25 161.25 224.25
2800279 1 236.25 167.25 224.25
2814560 1 239.25 164.25 227.25
2814568 1 263.25 164.25 227.25
2814569 1 266.25 164.25 227.25
