ITEM: TIMESTEP
92000
ITEM: NUMBER OF ATOMS
65
ITEM: BOX BOUNDS pp pp pp
0 360
0 360
0 360
ITEM: ATOMS id type x y z c_myKE c_myPE
2425255 1 164.336 151.71 145.165 0.256487 -6.24705
2523781 1 184.314 91.0325 167.106 0.215489 -6.32691
2569389 1 208.968 152.993 174.986 0.192871 -7.93029
2569508 1 205.828 155.879 175.062 0.134407 -7.58732
2569509 1 209.316 156.202 175.168 0.358151 -7.38761
2555220 1 180.248 160.785 173.856 0.392429 -6.67837
2569740 1 180.235 164.536 176.956 0.126022 -7.14338
2584019 1 176.774 161.151 180.186 0.0474669 -7.42626
2610537 1 170.47 98.7338 184.698 0.0382144 -7.54671
2610657 1 170.724 102.008 184.897 0.0783937 -8.28206
884568 1 148.352 154.621 183.226 0.0668518 -5.96888
2598658 1 174.062 164.516 183.19 0.0823004 -6.94819
2610297 1 172.188 94.0474 186.61 0.113939 -7.80699
896938 1 173.98 98.5901 188.024 0.144966 -7.45319
896941 1 178.276 97.1393 186.433 0.145279 -7.41639
2625058 1 173.833 101.969 187.782 0.326277 -7.98463
941811 1 151.37 154.835 186.669 0.140937 -6.86339
925496 1 168.72 94.3322 189.604 0.135204 -7.75984
2643787 1 200.46 218.693 192.865 0.126982 -6.79856
2725014 1 160.988 80.9528 212.323 0.183117 -5.93344
2727295 1 164.599 140.405 212.094 0.541259 -6.28932
1059552 1 212.986 208.53 222.866 0.102042 -6.09102
1059937 1 298.45 221.475 222.827 0.300065 -5.96996
2775448 1 270.701 270.489 220.913 0.116508 -7.01026
1061967 1 266.498 273.753 221.327 0.00661336 -6.61451
1118116 1 228.016 234.425 232.451 0.0627165 -6.31234
1148490 1 273.869 280.025 240.485 0.0229306 -7.3344
1163010 1 270.315 279.989 243.541 0.0835165 -7.10324
2891008 1 267.34 280.259 246.691 0.163734 -6.73202
2891114 1 222.819 285.6 246.847 0.135878 -6.59001
2918501 1 310.904 246.801 253.429 0.0627172 -6.83386
2960251 1 279.32 208.993 260.954 0.175181 -6.37611
2990959 1 238.654 260.019 269.607 0.26536 -7.16575
2468575 1 164.113 153.708 150.911 0.194544 -6.0482
2499428 1 207.418 208.515 159.558 0.278906 -7.14624
2499069 1 208.532 204.082 163.909 0.134032 -6.02128
841389 1 207.234 151.437 173.542 0.129381 -7.56825
841508 1 204.387 154.494 173.396 0.0783634 -7.20789
855789 1 207.31 151.123 176.768 0.073128 -7.3694
841619 1 175.823 159.429 175.674 0.184862 -7.24793
856139 1 175.464 163.059 178.427 0.239106 -7.62238
882657 1 169.053 100.415 182.864 0.301631 -7.44872
882897 1 169.176 106.467 182.784 0.194194 -6.83719
2598050 1 151.152 151.477 182.814 0.0955371 -7.04072
896577 1 169.253 90.975 186.331 0.156333 -6.83466
2610417 1 172.454 96.6668 186.266 0.138069 -7.827
2639457 1 172.296 100.225 186.27 0.0170264 -8.06641
2624575 1 167.327 89.6092 187.867 0.044921 -6.31574
2624941 1 179.792 98.9299 188.109 0.0472571 -7.12262
957651 1 147.907 180.01 201.011 0.192357 0
973657 1 297.033 221.267 202.362 0.12318 -6.68832
973776 1 293.601 224.589 202.223 0.561582 -6.88799
1030498 1 170.029 204.335 216.539 0.360222 -6.16848
1045018 1 170.502 207.598 220.067 0.387953 -6.87879
1060046 1 259.686 223.175 220.266 0.122413 -6.62176
1058832 1 217.031 189.304 223.343 0.0105275 -6.22768
1061849 1 270.878 268.91 222.895 0.121369 -7.50771
1086532 1 153.303 161.161 229.636 0.192958 -6.2293
1143039 1 109.704 134.276 240.651 0.085178 -6.72399
1175981 1 309.286 242.298 248.884 0.135011 -6.16283
1177065 1 322.038 269.193 248.787 0.0988749 -5.8011
1191345 1 322.068 266.115 251.665 0.178614 -6.72019
1192651 1 277.407 303.191 251.948 0.0807308 -6.9223
1263080 1 240.333 261.255 267.614 0.423941 -6.32079
1319126 1 259.59 220.454 278.703 0.0391645 -6.68405
