ITEM: TIMESTEP
87000
ITEM: NUMBER OF ATOMS
96
ITEM: BOX BOUNDS pp pp pp
0 360
0 360
0 360
ITEM: ATOMS id type x y z
624771 1 150.75 138.75 129.75
667978 1 171.75 138.75 138.75
699409 1 144.75 204.75 144.75
699410 1 147.75 204.75 144.75
699768 1 141.75 213.75 144.75
712249 1 144.75 165.75 147.75
714408 1 141.75 219.75 147.75
740691 1 150.75 156.75 153.75
753533 1 156.75 117.75 156.75
754018 1 171.75 129.75 156.75
797092 1 153.75 126.75 165.75
797451 1 150.75 135.75 165.75
797569 1 144.75 138.75 165.75
797571 1 150.75 138.75 165.75
797688 1 141.75 141.75 165.75
797689 1 144.75 141.75 165.75
797808 1 141.75 144.75 165.75
797928 1 141.75 147.75 165.75
798058 1 171.75 150.75 165.75
798532 1 153.75 162.75 165.75
811730 1 147.75 132.75 168.75
811731 1 150.75 132.75 168.75
811850 1 147.75 135.75 168.75
811851 1 150.75 135.75 168.75
811852 1 153.75 135.75 168.75
811970 1 147.75 138.75 168.75
826130 1 147.75 132.75 171.75
826131 1 150.75 132.75 171.75
826250 1 147.75 135.75 171.75
826251 1 150.75 135.75 171.75
826374 1 159.75 138.75 171.75
826490 1 147.75 141.75 171.75
826609 1 144.75 144.75 171.75
826610 1 147.75 144.75 171.75
827453 1 156.75 165.75 171.75
841131 1 150.75 147.75 174.75
841251 1 150.75 150.75 174.75
854922 1 123.75 132.75 177.75
855291 1 150.75 141.75 177.75
869571 1 150.75 138.75 180.75
869574 1 159.75 138.75 180.75
870052 1 153.75 150.75 180.75
884088 1 141.75 141.75 183.75
884089 1 144.75 141.75 183.75
884213 1 156.75 144.75 183.75
898734 1 159.75 147.75 186.75
898855 1 162.75 150.75 186.75
912776 1 165.75 138.75 189.75
941692 1 153.75 141.75 195.75
955853 1 156.75 135.75 198.75
2352644 1 131.25 137.25 131.25
2409043 1 128.25 107.25 143.25
2409402 1 125.25 116.25 143.25
2412766 1 137.25 200.25 143.25
2423802 1 125.25 116.25 146.25
2427044 1 131.25 197.25 146.25
2438821 1 182.25 131.25 149.25
2441806 1 137.25 206.25 149.25
2467251 1 152.25 122.25 155.25
2496888 1 143.25 143.25 161.25
2497131 1 152.25 149.25 161.25
2497485 1 134.25 158.25 161.25
2497849 1 146.25 167.25 161.25
2509735 1 164.25 104.25 164.25
2510927 1 140.25 134.25 164.25
2510933 1 158.25 134.25 164.25
2511164 1 131.25 140.25 164.25
2511408 1 143.25 146.25 164.25
2511889 1 146.25 158.25 164.25
2525326 1 137.25 134.25 167.25
2525327 1 140.25 134.25 167.25
2525330 1 149.25 134.25 167.25
2525333 1 158.25 134.25 167.25
2525449 1 146.25 137.25 167.25
2525450 1 149.25 137.25 167.25
2525812 1 155.25 146.25 167.25
2526053 1 158.25 152.25 167.25
2526168 1 143.25 155.25 167.25
2538285 1 134.25 98.25 170.25
2539730 1 149.25 134.25 170.25
2539731 1 152.25 134.25 170.25
2539849 1 146.25 137.25 170.25
2539850 1 149.25 137.25 170.25
2539973 1 158.25 140.25 170.25
2540204 1 131.25 146.25 170.25
2540213 1 158.25 146.25 170.25
2553891 1 152.25 128.25 173.25
2554246 1 137.25 137.25 173.25
2568169 1 146.25 125.25 176.25
2569017 1 170.25 146.25 176.25
2581016 1 167.25 86.25 179.25
2583288 1 143.25 143.25 179.25
2597210 1 149.25 131.25 182.25
2611850 1 149.25 137.25 185.25
2612211 1 152.25 146.25 185.25
2713371 1 152.25 155.25 206.25
