ITEM: TIMESTEP
91000
ITEM: NUMBER OF ATOMS
117
ITEM: BOX BOUNDS pp pp pp
0 360
0 360
0 360
ITEM: ATOMS id type x y z
182728 1 261.75 246.75 36.75
198196 1 225.75 273.75 39.75
240079 1 234.75 240.75 48.75
382979 1 174.75 213.75 78.75
397378 1 171.75 213.75 81.75
412148 1 201.75 222.75 84.75
412269 1 204.75 225.75 84.75
412511 1 210.75 231.75 84.75
426549 1 204.75 222.75 87.75
426790 1 207.75 228.75 87.75
426908 1 201.75 231.75 87.75
426910 1 207.75 231.75 87.75
427031 1 210.75 234.75 87.75
427151 1 210.75 237.75 87.75
427392 1 213.75 243.75 87.75
441069 1 204.75 225.75 90.75
441188 1 201.75 228.75 90.75
441189 1 204.75 228.75 90.75
441309 1 204.75 231.75 90.75
441310 1 207.75 231.75 90.75
441428 1 201.75 234.75 90.75
441430 1 207.75 234.75 90.75
441549 1 204.75 237.75 90.75
441671 1 210.75 240.75 90.75
441792 1 213.75 243.75 90.75
441911 1 210.75 246.75 90.75
455463 1 186.75 225.75 93.75
455465 1 192.75 225.75 93.75
455466 1 195.75 225.75 93.75
455585 1 192.75 228.75 93.75
455708 1 201.75 231.75 93.75
455829 1 204.75 234.75 93.75
456191 1 210.75 243.75 93.75
469864 1 189.75 225.75 96.75
470108 1 201.75 231.75 96.75
470227 1 198.75 234.75 96.75
470959 1 234.75 252.75 96.75
487043 1 246.75 294.75 99.75
540433 1 216.75 189.75 111.75
556991 1 210.75 243.75 114.75
557110 1 207.75 246.75 114.75
640121 1 120.75 162.75 132.75
670139 1 174.75 192.75 138.75
697027 1 198.75 144.75 144.75
726051 1 150.75 150.75 150.75
755209 1 144.75 159.75 156.75
755330 1 147.75 162.75 156.75
755699 1 174.75 171.75 156.75
755700 1 177.75 171.75 156.75
759650 1 147.75 270.75 156.75
768781 1 180.75 138.75 159.75
770100 1 177.75 171.75 159.75
787024 1 189.75 234.75 162.75
787025 1 192.75 234.75 162.75
787145 1 192.75 237.75 162.75
787263 1 186.75 240.75 162.75
801304 1 189.75 231.75 165.75
1997361 1 242.25 254.25 56.25
2069714 1 221.25 263.25 71.25
2097807 1 260.25 245.25 77.25
2110977 1 170.25 215.25 80.25
2111590 1 209.25 230.25 80.25
2111709 1 206.25 233.25 80.25
2125989 1 206.25 230.25 83.25
2127799 1 236.25 275.25 83.25
2140268 1 203.25 227.25 86.25
2140269 1 206.25 227.25 86.25
2140390 1 209.25 230.25 86.25
2140510 1 209.25 233.25 86.25
2140631 1 212.25 236.25 86.25
2140871 1 212.25 242.25 86.25
2154548 1 203.25 224.25 89.25
2154667 1 200.25 227.25 89.25
2154669 1 206.25 227.25 89.25
2154786 1 197.25 230.25 89.25
2154789 1 206.25 230.25 89.25
2154910 1 209.25 233.25 89.25
2155030 1 209.25 236.25 89.25
2155150 1 209.25 239.25 89.25
2155151 1 212.25 239.25 89.25
2155271 1 212.25 242.25 89.25
2155392 1 215.25 245.25 89.25
2168947 1 200.25 224.25 92.25
2169066 1 197.25 227.25 92.25
2169186 1 197.25 230.25 92.25
2169187 1 200.25 230.25 92.25
2169188 1 203.25 230.25 92.25
2169309 1 206.25 233.25 92.25
2169427 1 200.25 236.25 92.25
2169671 1 212.25 242.25 92.25
2183344 1 191.25 224.25 95.25
2183464 1 191.25 227.25 95.25
2183466 1 197.25 227.25 95.25
2183585 1 194.25 230.25 95.25
2183587 1 200.25 230.25 95.25
2183828 1 203.25 236.25 95.25
2183948 1 203.25 239.25 95.25
2255219 1 176.25 221.25 110.25
2255338 1 173.25 224.25 110.25
2267093 1 158.25 158.25 113.25
2299391 1 212.25 245.25 119.25
2357722 1 245.25 263.25 131.25
2369235 1 224.25 191.25 134.25
2369340 1 179.25 194.25 134.25
2369956 1 227.25 209.25 134.25
2383620 1 179.25 191.25 137.25
2383636 1 227.25 191.25 137.25
2398019 1 176.25 191.25 140.25
2483458 1 173.25 167.25 158.25
2500504 1 191.25 233.25 161.25
2515024 1 191.25 236.25 164.25
2526775 1 164.25 170.25 167.25
2530004 1 131.25 251.25 167.25
2585471 1 212.25 197.25 179.25
2758502 1 185.25 203.25 215.25
2772782 1 185.25 200.25 218.25
2772903 1 188.25 203.25 218.25
