ITEM: TIMESTEP
87000
ITEM: NUMBER OF ATOMS
94
ITEM: BOX BOUNDS pp pp pp
0 360
0 360
0 360
ITEM: ATOMS id type x y z
420091 1 270.75 60.75 87.75
462080 1 237.75 30.75 96.75
494947 1 198.75 132.75 102.75
508884 1 249.75 120.75 105.75
608252 1 273.75 84.75 126.75
610375 1 162.75 138.75 126.75
610509 1 204.75 141.75 126.75
622532 1 273.75 81.75 129.75
622647 1 258.75 84.75 129.75
622651 1 270.75 84.75 129.75
638230 1 207.75 114.75 132.75
638234 1 219.75 114.75 132.75
638351 1 210.75 117.75 132.75
652631 1 210.75 114.75 135.75
652754 1 219.75 117.75 135.75
682983 1 186.75 153.75 141.75
697263 1 186.75 150.75 144.75
697384 1 189.75 153.75 144.75
741064 1 189.75 165.75 153.75
741184 1 189.75 168.75 153.75
741304 1 189.75 171.75 153.75
741305 1 192.75 171.75 153.75
741423 1 186.75 174.75 153.75
741424 1 189.75 174.75 153.75
741425 1 192.75 174.75 153.75
755583 1 186.75 168.75 156.75
755702 1 183.75 171.75 156.75
755703 1 186.75 171.75 156.75
755823 1 186.75 174.75 156.75
755943 1 186.75 177.75 156.75
755944 1 189.75 177.75 156.75
755945 1 192.75 177.75 156.75
755946 1 195.75 177.75 156.75
769502 1 183.75 156.75 159.75
769861 1 180.75 165.75 159.75
769863 1 186.75 165.75 159.75
769982 1 183.75 168.75 159.75
770102 1 183.75 171.75 159.75
770343 1 186.75 177.75 159.75
784382 1 183.75 168.75 162.75
784501 1 180.75 171.75 162.75
1930535 1 284.25 23.25 44.25
2150726 1 257.25 128.25 89.25
2219474 1 221.25 47.25 104.25
2236763 1 248.25 119.25 107.25
2294597 1 230.25 125.25 119.25
2310192 1 215.25 155.25 122.25
2336127 1 260.25 83.25 128.25
2338373 1 158.25 140.25 128.25
2341382 1 185.25 215.25 128.25
2351711 1 212.25 113.25 131.25
2351951 1 212.25 119.25 131.25
2352774 1 161.25 140.25 131.25
2366352 1 215.25 119.25 134.25
2380513 1 218.25 113.25 137.25
2380632 1 215.25 116.25 137.25
2380633 1 218.25 116.25 137.25
2393236 1 227.25 71.25 140.25
2394912 1 215.25 113.25 140.25
2410983 1 188.25 155.25 143.25
2422752 1 215.25 89.25 146.25
2440010 1 149.25 161.25 149.25
2440384 1 191.25 170.25 149.25
2452367 1 140.25 110.25 152.25
2454544 1 191.25 164.25 152.25
2454664 1 191.25 167.25 152.25
2454784 1 191.25 170.25 152.25
2454785 1 194.25 170.25 152.25
2454905 1 194.25 173.25 152.25
2455025 1 194.25 176.25 152.25
2469183 1 188.25 170.25 155.25
2469423 1 188.25 176.25 155.25
2469424 1 191.25 176.25 155.25
2469425 1 194.25 176.25 155.25
2469426 1 197.25 176.25 155.25
2469546 1 197.25 179.25 155.25
2483220 1 179.25 161.25 158.25
2483341 1 182.25 164.25 158.25
2483702 1 185.25 173.25 158.25
2483821 1 182.25 176.25 158.25
2483822 1 185.25 176.25 158.25
2483941 1 182.25 179.25 158.25
2483943 1 188.25 179.25 158.25
2484062 1 185.25 182.25 158.25
2497621 1 182.25 161.25 161.25
2497742 1 185.25 164.25 161.25
2497861 1 182.25 167.25 161.25
2498101 1 182.25 173.25 161.25
2498221 1 182.25 176.25 161.25
2498340 1 179.25 179.25 161.25
2498342 1 185.25 179.25 161.25
2582242 1 245.25 116.25 179.25
2585216 1 167.25 191.25 179.25
2611624 1 191.25 131.25 185.25
