ITEM: TIMESTEP
87194
ITEM: NUMBER OF ATOMS
94
ITEM: BOX BOUNDS pp pp pp
0 360
0 360
0 360
ITEM: ATOMS id type x y z
420091 1 270.75 60.75 87.75
494947 1 198.75 132.75 102.75
608252 1 273.75 84.75 126.75
610375 1 162.75 138.75 126.75
622528 1 261.75 81.75 129.75
622532 1 273.75 81.75 129.75
622647 1 258.75 84.75 129.75
638230 1 207.75 114.75 132.75
638351 1 210.75 117.75 132.75
652631 1 210.75 114.75 135.75
665356 1 225.75 72.75 138.75
683104 1 189.75 156.75 141.75
694753 1 216.75 87.75 144.75
740945 1 192.75 162.75 153.75
741065 1 192.75 165.75 153.75
741185 1 192.75 168.75 153.75
741305 1 192.75 171.75 153.75
741306 1 195.75 171.75 153.75
741426 1 195.75 174.75 153.75
755584 1 189.75 168.75 156.75
755704 1 189.75 171.75 156.75
755824 1 189.75 174.75 156.75
755825 1 192.75 174.75 156.75
755945 1 192.75 177.75 156.75
769502 1 183.75 156.75 159.75
769742 1 183.75 162.75 159.75
769863 1 186.75 165.75 159.75
769983 1 186.75 168.75 159.75
770103 1 186.75 171.75 159.75
770223 1 186.75 174.75 159.75
770343 1 186.75 177.75 159.75
770344 1 189.75 177.75 159.75
770463 1 186.75 180.75 159.75
784382 1 183.75 168.75 162.75
784501 1 180.75 171.75 162.75
784622 1 183.75 174.75 162.75
784741 1 180.75 177.75 162.75
784743 1 186.75 177.75 162.75
1930535 1 284.25 23.25 44.25
2150726 1 257.25 128.25 89.25
2175560 1 239.25 29.25 95.25
2219474 1 221.25 47.25 104.25
2222364 1 251.25 119.25 104.25
2236763 1 248.25 119.25 107.25
2294597 1 230.25 125.25 119.25
2310192 1 215.25 155.25 122.25
2336131 1 272.25 83.25 128.25
2338373 1 158.25 140.25 128.25
2338389 1 206.25 140.25 128.25
2341382 1 185.25 215.25 128.25
2351711 1 212.25 113.25 131.25
2351951 1 212.25 119.25 131.25
2352774 1 161.25 140.25 131.25
2366233 1 218.25 116.25 134.25
2366352 1 215.25 119.25 134.25
2380513 1 218.25 113.25 137.25
2380632 1 215.25 116.25 137.25
2380633 1 218.25 116.25 137.25
2380753 1 218.25 119.25 137.25
2394912 1 215.25 113.25 140.25
2396583 1 188.25 155.25 140.25
2410863 1 188.25 152.25 143.25
2410984 1 191.25 155.25 143.25
2440010 1 149.25 161.25 149.25
2452367 1 140.25 110.25 152.25
2454665 1 194.25 167.25 152.25
2454785 1 194.25 170.25 152.25
2468944 1 191.25 164.25 155.25
2469064 1 191.25 167.25 155.25
2469184 1 191.25 170.25 155.25
2469304 1 191.25 173.25 155.25
2469305 1 194.25 173.25 155.25
2469425 1 194.25 176.25 155.25
2469426 1 197.25 176.25 155.25
2469545 1 194.25 179.25 155.25
2469546 1 197.25 179.25 155.25
2483220 1 179.25 161.25 158.25
2483463 1 188.25 167.25 158.25
2483583 1 188.25 170.25 158.25
2483703 1 188.25 173.25 158.25
2483823 1 188.25 176.25 158.25
2483824 1 191.25 176.25 158.25
2497621 1 182.25 161.25 161.25
2497741 1 182.25 164.25 161.25
2497742 1 185.25 164.25 161.25
2497861 1 182.25 167.25 161.25
2497862 1 185.25 167.25 161.25
2497982 1 185.25 170.25 161.25
2498101 1 182.25 173.25 161.25
2498102 1 185.25 173.25 161.25
2498222 1 185.25 176.25 161.25
2582242 1 245.25 116.25 179.25
2585216 1 167.25 191.25 179.25
2611624 1 191.25 131.25 185.25
