ITEM: TIMESTEP
87000
ITEM: NUMBER OF ATOMS
76
ITEM: BOX BOUNDS pp pp pp
0 360
0 360
0 360
ITEM: ATOMS id type x y z
538856 1 165.75 150.75 111.75
568130 1 147.75 162.75 117.75
582530 1 147.75 162.75 120.75
682130 1 147.75 132.75 141.75
797829 1 204.75 144.75 165.75
811989 1 204.75 138.75 168.75
812108 1 201.75 141.75 168.75
812347 1 198.75 147.75 168.75
826388 1 201.75 138.75 171.75
826507 1 198.75 141.75 171.75
826508 1 201.75 141.75 171.75
840787 1 198.75 138.75 174.75
841027 1 198.75 144.75 174.75
883998 1 231.75 138.75 183.75
884118 1 231.75 141.75 183.75
884119 1 234.75 141.75 183.75
899360 1 237.75 162.75 186.75
926724 1 249.75 126.75 192.75
926725 1 252.75 126.75 192.75
926845 1 252.75 129.75 192.75
928022 1 183.75 159.75 192.75
928143 1 186.75 162.75 192.75
941125 1 252.75 126.75 195.75
941126 1 255.75 126.75 195.75
955406 1 255.75 123.75 198.75
955525 1 252.75 126.75 198.75
955527 1 258.75 126.75 198.75
967857 1 168.75 75.75 201.75
997059 1 294.75 84.75 207.75
998587 1 198.75 123.75 207.75
998708 1 201.75 126.75 207.75
1012865 1 192.75 120.75 210.75
1012867 1 198.75 120.75 210.75
1012986 1 195.75 123.75 210.75
1013107 1 198.75 126.75 210.75
1013935 1 162.75 147.75 210.75
1098810 1 267.75 108.75 228.75
1098931 1 270.75 111.75 228.75
1114646 1 255.75 144.75 231.75
1141014 1 159.75 84.75 237.75
1156487 1 138.75 111.75 240.75
2296129 1 146.25 164.25 119.25
2365502 1 185.25 98.25 134.25
2395610 1 149.25 131.25 140.25
2410140 1 179.25 134.25 143.25
2468945 1 194.25 164.25 155.25
2483346 1 197.25 164.25 158.25
2540108 1 203.25 143.25 170.25
2554506 1 197.25 143.25 173.25
2554507 1 200.25 143.25 173.25
2554628 1 203.25 146.25 173.25
2568786 1 197.25 140.25 176.25
2598295 1 164.25 158.25 182.25
2598320 1 239.25 158.25 182.25
2612815 1 164.25 161.25 185.25
2626278 1 233.25 137.25 188.25
2627364 1 251.25 164.25 188.25
2640324 1 251.25 128.25 191.25
2640327 1 260.25 128.25 191.25
2653372 1 155.25 95.25 194.25
2654485 1 254.25 122.25 194.25
2654604 1 251.25 125.25 194.25
2654725 1 254.25 128.25 194.25
2654847 1 260.25 131.25 194.25
2667278 1 113.25 83.25 197.25
2669006 1 257.25 125.25 197.25
2695356 1 107.25 65.25 203.25
2712306 1 197.25 128.25 206.25
2712545 1 194.25 134.25 206.25
2726466 1 197.25 122.25 209.25
2726707 1 200.25 128.25 209.25
2740744 1 191.25 119.25 212.25
2768463 1 188.25 92.25 218.25
2768696 1 167.25 98.25 218.25
2856447 1 260.25 131.25 236.25
2871917 1 230.25 158.25 239.25
