ITEM: TIMESTEP
91657
ITEM: NUMBER OF ATOMS
57
ITEM: BOX BOUNDS pp pp pp
0 360
0 360
0 360
ITEM: ATOMS id type x y z
756092 1 273.75 180.75 156.75
769387 1 198.75 153.75 159.75
841120 1 117.75 147.75 174.75
855913 1 216.75 156.75 177.75
898644 1 249.75 144.75 186.75
899093 1 156.75 156.75 186.75
928644 1 249.75 174.75 192.75
941239 1 234.75 129.75 195.75
970181 1 300.75 132.75 201.75
997889 1 264.75 105.75 207.75
1012289 1 264.75 105.75 210.75
1012649 1 264.75 114.75 210.75
1015056 1 285.75 174.75 210.75
1031605 1 252.75 228.75 213.75
1043243 1 246.75 159.75 216.75
1043364 1 249.75 162.75 216.75
1045885 1 252.75 225.75 216.75
1055468 1 201.75 105.75 219.75
1057763 1 246.75 162.75 219.75
1100495 1 282.75 150.75 228.75
1127849 1 264.75 114.75 234.75
1127865 1 312.75 114.75 234.75
1129159 1 234.75 147.75 234.75
1142129 1 264.75 111.75 237.75
1142250 1 267.75 114.75 237.75
1143679 1 234.75 150.75 237.75
1214231 1 210.75 114.75 252.75
1228632 1 213.75 114.75 255.75
1230434 1 219.75 159.75 255.75
2411584 1 191.25 170.25 143.25
2440607 1 140.25 176.25 149.25
2525571 1 152.25 140.25 167.25
2525692 1 155.25 143.25 167.25
2543598 1 233.25 230.25 170.25
2555809 1 146.25 176.25 173.25
2569393 1 218.25 155.25 176.25
2583673 1 218.25 152.25 179.25
2599399 1 236.25 185.25 182.25
2641046 1 257.25 146.25 191.25
2654719 1 236.25 128.25 194.25
2656402 1 245.25 170.25 194.25
2670801 1 242.25 170.25 197.25
2701054 1 281.25 206.25 203.25
2710417 1 290.25 80.25 206.25
2725769 1 266.25 104.25 209.25
2740288 1 263.25 107.25 212.25
2770043 1 248.25 131.25 218.25
2842880 1 239.25 152.25 233.25
2855849 1 266.25 116.25 236.25
2857038 1 233.25 146.25 236.25
2857279 1 236.25 152.25 236.25
2871437 1 230.25 146.25 239.25
2872529 1 266.25 173.25 239.25
2886688 1 263.25 167.25 242.25
2886807 1 260.25 170.25 242.25
2901208 1 263.25 170.25 245.25
2943914 1 221.25 158.25 254.25
