ITEM: TIMESTEP
90000
ITEM: NUMBER OF ATOMS
68
ITEM: BOX BOUNDS pp pp pp
0 360
0 360
0 360
ITEM: ATOMS id type x y z c_myKE c_myPE
2266374 1 161.197 136.916 108.293 0.0712494 -7.15218
2340772 1 154.665 200.609 124.131 0.143253 -8.02215
2340773 1 157.884 200.772 124.3 0.0818915 -8.63365
2340893 1 157.929 203.956 124.309 0.0212639 -8.76545
2341013 1 157.791 207.016 124.266 0.497971 -7.97049
2327323 1 122.647 227.931 122.562 0.0855477 -6.57398
2369575 1 164.641 200.86 130.479 0.0256309 -8.02817
2369694 1 161.044 203.847 130.327 0.125137 -8.0764
655973 1 156.005 195.659 132.396 0.135201 -6.64165
670255 1 160.945 197.666 133.577 0.229823 -7.88376
655976 1 162.53 199.419 132.117 0.11202 -7.33313
2427760 1 114.248 218.797 143.283 0.249178 -6.56695
2440360 1 116.815 168.627 146.451 0.139813 -6.23612
2440974 1 162.487 188.231 145.764 0.209084 -6.56119
2439663 1 184.311 154.46 149.85 0.0949265 -6.81211
741775 1 167.765 187.942 151.428 0.139531 -7.45236
742018 1 158.775 189.528 151.202 0.0362671 -6.52127
785093 1 164.073 188.021 155.528 0.102319 -7.69276
2569637 1 234.548 161.135 174.765 0.0350461 -7.02196
886632 1 221.682 212.089 181.786 0.570124 -6.149
2670777 1 168.904 168.262 197.247 0.0668972 -7.75257
2670897 1 168.544 171.898 197.57 0.144177 -6.99235
2685417 1 168.932 175.075 200.294 0.0235956 -7.70659
2713976 1 165.63 168.694 206.778 0.222738 -7.4655
2728256 1 165.507 165.277 209.936 0.140877 -6.97832
2728377 1 168.717 168.425 210.229 0.0568492 -6.66205
538374 1 159.757 135.198 106.506 0.0794596 -7.2478
598613 1 156.349 205.569 119.312 0.119199 -8.09268
612893 1 156.228 202.129 122.718 0.172793 -8.66463
613012 1 153.083 205.348 122.585 0.0995817 -7.62621
613013 1 156.253 205.295 122.521 0.354648 -8.13396
613856 1 163.994 227.911 122.302 0.0747646 -7.53696
627172 1 153.288 198.935 125.714 0.174119 -7.96777
627173 1 156.281 199.145 125.82 0.27248 -8.33726
627174 1 159.43 199.268 125.794 0.0743083 -8.71164
627294 1 159.642 202.374 125.822 0.617095 -8.84252
627414 1 159.638 205.499 125.6 0.149271 -8.19015
628376 1 164.018 230.606 125.666 0.615144 -7.01396
641454 1 159.627 196.016 129.138 0.12576 -8.27836
641573 1 156.314 199.078 128.934 0.349811 -8.44408
641574 1 159.336 199.05 128.992 0.137167 -8.54163
641694 1 159.387 202.375 128.959 0.0731968 -8.68115
641814 1 159.264 205.355 129.076 0.0499027 -7.83821
641815 1 162.698 205.537 129.004 0.337816 -8.35944
641934 1 159.222 208.566 128.795 0.313055 -7.53569
655975 1 159.423 199.289 132.091 0.0293182 -8.24787
656095 1 161.08 201.002 130.551 0.133525 -8.50446
656096 1 165.912 202.368 132.174 0.217854 -7.25347
2440978 1 162.689 189.696 147.842 0.186239 -8.01296
2498458 1 159.598 192.865 146.524 0.0366333 -6.81814
728468 1 202.139 211.78 147.787 0.0416374 -6.95641
714636 1 101.832 229.662 146.795 0.023597 -6.21859
756413 1 162.49 191.58 149.753 0.227343 -7.91196
2512976 1 162.416 187.75 153.234 0.0343395 -8.12374
827478 1 236.112 165.585 170.599 0.468293 -6.4069
814629 1 207.201 205.46 170.543 0.227829 -6.10807
843551 1 211.957 210.625 173.252 0.0931271 -6.56324
886874 1 224.665 214.926 181.882 0.0126176 -7.55077
928261 1 179.927 163.824 192.639 0.0766678 -6.86784
942898 1 170.434 170.277 195.989 0.0154576 -6.96145
957297 1 167.357 170.225 199.211 0.173943 -7.24042
971817 1 166.951 173.409 201.973 0.043593 -7.45384
973744 1 191.432 226.167 204.303 0.168081 -6.39101
1000615 1 160.839 173.428 208.715 0.609565 -6.88176
1015136 1 164.032 176.837 208.445 0.607902 -6.64098
2743015 1 160.825 171.996 214.955 0.0235998 -6.08755
1029534 1 156.601 176.601 214.082 0.0439346 -6.97863
1016098 1 172.201 201.901 213.421 0.165315 -6.38669
