ITEM: TIMESTEP
89000
ITEM: NUMBER OF ATOMS
42
ITEM: BOX BOUNDS pp pp pp
0 360
0 360
0 360
ITEM: ATOMS id type x y z c_myKE c_myPE
2278275 1 227.873 69.6198 111.44 0.274115 -6.30136
2349789 1 206.946 57.1215 129.444 0.0943063 -6.65927
2396328 1 139.931 146.377 138.612 0.0228426 -5.77282
695592 1 215.006 106.526 142.643 0.273589 -7.63238
2409193 1 218.604 106.265 146.359 0.131364 -7.62082
695831 1 213.278 113.341 144.564 0.0610004 -7.64405
738914 1 216.833 109.927 151.732 0.185871 -8.02859
2468350 1 210.028 146.173 154.646 0.334999 -6.79831
2514877 1 104.897 235.743 162.519 0.0765882 -7.01382
2529278 1 108.069 235.55 165.607 0.19764 -6.65018
816645 1 129.418 262.958 167.623 0.323344 -6.18756
2530358 1 110.553 266.099 167.346 0.0064094 -5.7322
2556891 1 151.324 206.873 171.21 0.0586656 -6.29953
830205 1 126.755 237.695 172.261 0.11901 -7.29418
481040 1 242.111 143.622 94.0219 0.0578979 -6.30495
2207591 1 214.648 108.603 97.0925 0.439792 -6.96912
494478 1 233.887 116.068 96.8591 0.24521 -6.99793
596920 1 113.122 160.479 121.008 0.0456813 -6.2113
623724 1 252.708 102.145 125.577 0.234174 -6.36074
636309 1 205.42 58.8019 131.306 0.284124 -6.59737
686433 1 90.6901 243.72 137.427 0.101634 -5.62868
2426097 1 172.242 173.449 141.43 0.290278 -6.56276
709752 1 214.793 104.797 144.633 0.0806041 -7.53091
710352 1 218.657 111.605 147.809 0.166774 -7.86008
724511 1 213.254 115.339 146.436 0.91408 -7.56148
696431 1 214.756 128.809 146.514 0.0733728 -7.08117
2453232 1 210.368 130.422 148.002 0.36642 -7.1534
696792 1 214.923 134.94 147.009 0.0542581 -7.15582
767352 1 214.941 106.076 149.755 0.407819 -7.62193
2452512 1 213.177 111.637 149.959 0.121744 -7.84902
739034 1 220.352 111.712 149.728 0.153437 -7.28824
710710 1 211.811 128.742 149.798 0.105783 -7.76134
2410150 1 213.564 130.499 151.281 0.0624602 -6.84095
785336 1 163.803 192.665 162.455 0.0696188 -5.86728
815805 1 127.362 240.444 172.427 0.124898 -6.72564
843526 1 133.6 210.882 175.49 0.0948181 -6.42529
2572604 1 130.821 240.706 175.263 0.00569126 -6.63426
2558203 1 127.445 243.79 175.574 0.0918124 -6.22147
853635 1 224.414 92.8453 178.636 0.0258469 -6.63333
868384 1 188.885 103.244 179.979 0.118501 -6.92352
868035 1 224.691 95.6137 181.994 0.0147644 -7.1583
926102 1 184.936 108.512 192.8 0.39449 -6.01066
