ITEM: TIMESTEP
86000
ITEM: NUMBER OF ATOMS
74
ITEM: BOX BOUNDS pp pp pp
0 360
0 360
0 360
ITEM: ATOMS id type x y z
482685 1 132.75 186.75 99.75
540770 1 147.75 198.75 111.75
597521 1 120.75 177.75 123.75
641210 1 147.75 189.75 132.75
641327 1 138.75 192.75 132.75
641330 1 147.75 192.75 132.75
654055 1 162.75 150.75 135.75
654294 1 159.75 156.75 135.75
654776 1 165.75 168.75 135.75
656210 1 147.75 204.75 135.75
668931 1 150.75 162.75 138.75
669529 1 144.75 177.75 138.75
669892 1 153.75 186.75 138.75
682613 1 156.75 144.75 141.75
683452 1 153.75 165.75 141.75
697016 1 165.75 144.75 144.75
697253 1 156.75 150.75 144.75
713555 1 102.75 198.75 147.75
728077 1 108.75 201.75 150.75
742862 1 183.75 210.75 153.75
743337 1 168.75 222.75 153.75
768773 1 156.75 138.75 159.75
769854 1 159.75 165.75 159.75
785675 1 102.75 201.75 162.75
813281 1 120.75 171.75 168.75
885181 1 180.75 168.75 183.75
885766 1 135.75 183.75 183.75
886006 1 135.75 189.75 183.75
971343 1 186.75 162.75 201.75
1043103 1 186.75 156.75 216.75
1057388 1 201.75 153.75 219.75
1057987 1 198.75 168.75 219.75
1058104 1 189.75 171.75 219.75
1072627 1 198.75 174.75 222.75
1144022 1 183.75 159.75 237.75
1173303 1 186.75 171.75 243.75
1174392 1 213.75 198.75 243.75
1217590 1 207.75 198.75 252.75
1231150 1 207.75 177.75 255.75
1232353 1 216.75 207.75 255.75
2282322 1 125.25 179.25 116.25
2282326 1 137.25 179.25 116.25
2282444 1 131.25 182.25 116.25
2283413 1 158.25 206.25 116.25
2340042 1 125.25 182.25 128.25
2354566 1 137.25 185.25 131.25
2382292 1 155.25 158.25 137.25
2411812 1 155.25 176.25 143.25
2427897 1 170.25 218.25 146.25
2468812 1 155.25 161.25 155.25
2496412 1 155.25 131.25 161.25
2499038 1 113.25 197.25 161.25
2499153 1 98.25 200.25 161.25
2499154 1 101.25 200.25 161.25
2599377 1 170.25 185.25 182.25
2599850 1 149.25 197.25 182.25
2684811 1 152.25 161.25 200.25
2713746 1 197.25 164.25 206.25
2742053 1 158.25 152.25 212.25
2756581 1 182.25 155.25 215.25
2756708 1 203.25 158.25 215.25
2771106 1 197.25 158.25 218.25
2771343 1 188.25 164.25 218.25
2786094 1 161.25 173.25 221.25
2814060 1 179.25 152.25 227.25
2814786 1 197.25 170.25 227.25
2828814 1 161.25 161.25 230.25
2828818 1 173.25 161.25 230.25
2843822 1 185.25 176.25 233.25
2901786 1 197.25 185.25 245.25
2902149 1 206.25 194.25 245.25
2902150 1 209.25 194.25 245.25
2915828 1 203.25 176.25 248.25
2917391 1 212.25 215.25 248.25
