ITEM: TIMESTEP
90000
ITEM: NUMBER OF ATOMS
78
ITEM: BOX BOUNDS pp pp pp
0 360
0 360
0 360
ITEM: ATOMS id type x y z
308848 1 261.75 159.75 63.75
394879 1 234.75 150.75 81.75
480900 1 177.75 141.75 99.75
540430 1 207.75 189.75 111.75
540551 1 210.75 192.75 111.75
553276 1 225.75 150.75 114.75
554469 1 204.75 180.75 114.75
567556 1 225.75 147.75 117.75
568022 1 183.75 159.75 117.75
568387 1 198.75 168.75 117.75
568525 1 252.75 171.75 117.75
568526 1 255.75 171.75 117.75
569228 1 201.75 189.75 117.75
569229 1 204.75 189.75 117.75
582926 1 255.75 171.75 120.75
610483 1 126.75 141.75 126.75
612317 1 228.75 186.75 126.75
626702 1 183.75 186.75 129.75
725579 1 174.75 138.75 150.75
725698 1 171.75 141.75 150.75
754758 1 231.75 147.75 156.75
755459 1 174.75 165.75 156.75
756653 1 156.75 195.75 156.75
797106 1 195.75 126.75 165.75
798675 1 222.75 165.75 165.75
826754 1 219.75 147.75 171.75
841862 1 183.75 165.75 174.75
856263 1 186.75 165.75 177.75
856384 1 189.75 168.75 177.75
870662 1 183.75 165.75 180.75
870783 1 186.75 168.75 180.75
870903 1 186.75 171.75 180.75
885182 1 183.75 168.75 183.75
898977 1 168.75 153.75 186.75
898978 1 171.75 153.75 186.75
927289 1 144.75 141.75 192.75
927410 1 147.75 144.75 192.75
1015854 1 159.75 195.75 210.75
1115212 1 153.75 159.75 231.75
1950319 1 236.25 158.25 47.25
1964599 1 236.25 155.25 50.25
1993517 1 230.25 158.25 56.25
2194373 1 158.25 140.25 98.25
2254030 1 209.25 191.25 110.25
2268309 1 206.25 188.25 113.25
2268430 1 209.25 191.25 113.25
2281275 1 224.25 152.25 116.25
2282126 1 257.25 173.25 116.25
2282245 1 254.25 176.25 116.25
2282589 1 206.25 185.25 116.25
2282710 1 209.25 188.25 116.25
2282829 1 206.25 191.25 116.25
2282830 1 209.25 191.25 116.25
2282831 1 212.25 191.25 116.25
2295555 1 224.25 149.25 119.25
2295557 1 230.25 149.25 119.25
2295676 1 227.25 152.25 119.25
2296988 1 203.25 185.25 119.25
2297109 1 206.25 188.25 119.25
2297230 1 209.25 191.25 119.25
2340159 1 116.25 185.25 128.25
2366574 1 161.25 125.25 134.25
2439297 1 170.25 143.25 149.25
2453579 1 176.25 140.25 152.25
2453698 1 173.25 143.25 152.25
2496555 1 224.25 134.25 161.25
2570104 1 191.25 173.25 176.25
2584263 1 188.25 167.25 179.25
2584383 1 188.25 170.25 179.25
2584384 1 191.25 170.25 179.25
2584503 1 188.25 173.25 179.25
2598661 1 182.25 167.25 182.25
2598662 1 185.25 167.25 182.25
2598782 1 185.25 170.25 182.25
2598902 1 185.25 173.25 182.25
2612457 1 170.25 152.25 185.25
2613182 1 185.25 170.25 185.25
2728622 1 185.25 176.25 209.25
