ITEM: TIMESTEP
86000
ITEM: NUMBER OF ATOMS
78
ITEM: BOX BOUNDS pp pp pp
0 360
0 360
0 360
ITEM: ATOMS id type x y z
826973 1 156.75 153.75 171.75
840295 1 162.75 126.75 174.75
842572 1 153.75 183.75 174.75
843176 1 165.75 198.75 174.75
883243 1 126.75 120.75 183.75
883852 1 153.75 135.75 183.75
899095 1 162.75 156.75 186.75
914216 1 165.75 174.75 189.75
914331 1 150.75 177.75 189.75
928733 1 156.75 177.75 192.75
928973 1 156.75 183.75 192.75
929448 1 141.75 195.75 192.75
943374 1 159.75 183.75 195.75
957292 1 153.75 171.75 198.75
957770 1 147.75 183.75 198.75
972413 1 156.75 189.75 201.75
986813 1 156.75 189.75 204.75
986816 1 165.75 189.75 204.75
1001458 1 171.75 195.75 207.75
1013312 1 93.75 132.75 210.75
1044533 1 156.75 192.75 216.75
1044898 1 171.75 201.75 216.75
1056995 1 102.75 144.75 219.75
1058935 1 162.75 192.75 219.75
1071035 1 102.75 135.75 222.75
1071036 1 105.75 135.75 222.75
1071638 1 111.75 150.75 222.75
1085676 1 105.75 141.75 225.75
1099237 1 108.75 120.75 228.75
1114238 1 111.75 135.75 231.75
1114363 1 126.75 138.75 231.75
1114592 1 93.75 144.75 231.75
1114596 1 105.75 144.75 231.75
1114597 1 108.75 144.75 231.75
1128516 1 105.75 132.75 234.75
1142916 1 105.75 132.75 237.75
2497251 1 152.25 152.25 161.25
2511408 1 143.25 146.25 164.25
2525813 1 158.25 146.25 167.25
2540453 1 158.25 152.25 170.25
2569729 1 146.25 164.25 176.25
2584494 1 161.25 173.25 179.25
2597576 1 167.25 140.25 182.25
2612095 1 164.25 143.25 185.25
2613291 1 152.25 173.25 185.25
2626618 1 173.25 146.25 188.25
2627332 1 155.25 164.25 188.25
2627812 1 155.25 176.25 188.25
2656614 1 161.25 176.25 194.25
2657215 1 164.25 191.25 194.25
2657932 1 155.25 209.25 194.25
2671132 1 155.25 179.25 197.25
2672091 1 152.25 203.25 197.25
2672698 1 173.25 218.25 197.25
2699692 1 155.25 173.25 203.25
2700169 1 146.25 185.25 203.25
2700532 1 155.25 194.25 203.25
2714571 1 152.25 185.25 206.25
2714572 1 155.25 185.25 206.25
2726674 1 101.25 128.25 209.25
2770115 1 104.25 134.25 218.25
2770235 1 104.25 137.25 218.25
2770597 1 110.25 146.25 218.25
2770717 1 110.25 149.25 218.25
2784876 1 107.25 143.25 221.25
2784880 1 119.25 143.25 221.25
2798916 1 107.25 134.25 224.25
2799274 1 101.25 143.25 224.25
2799394 1 101.25 146.25 224.25
2799398 1 113.25 146.25 224.25
2812717 1 110.25 119.25 227.25
2813075 1 104.25 128.25 227.25
2813677 1 110.25 143.25 227.25
2813794 1 101.25 146.25 227.25
2813919 1 116.25 149.25 227.25
2827715 1 104.25 134.25 230.25
2842719 1 116.25 149.25 233.25
2842721 1 122.25 149.25 233.25
