ITEM: TIMESTEP
87261
ITEM: NUMBER OF ATOMS
75
ITEM: BOX BOUNDS pp pp pp
0 360
0 360
0 360
ITEM: ATOMS id type x y z c_myKE c_myPE
2325303 1 189.59 173.652 120.683 0 -6.54222
2341967 1 138.724 234.4 124.002 0 -6.25476
2395150 1 210.134 116.385 136.772 0 -6.82211
2409430 1 210.008 113.13 140.029 0 -6.54944
2481543 1 187.667 116.425 155.822 0 -7.59308
2495823 1 187.691 113.12 159.18 0 -6.5468
2555583 1 189.68 173.777 173.505 0 -6.93066
2557372 1 154.672 216.518 173.806 0 -6.25724
2583539 1 175.26 148.096 178.325 0 -8.18559
2598904 1 187.946 175.203 178.052 0 -7.37442
2584623 1 191.108 178.551 178.24 0 -6.91788
869818 1 175.168 148.253 181.496 0 -8.18924
2598057 1 175.129 151.379 181.453 0 -8.34481
870664 1 191.178 168.855 181.361 0 -7.28798
2598902 1 187.857 172.14 181.515 0 -7.76001
885185 1 190.927 172.083 184.741 0 -7.63541
899823 1 187.781 175.131 184.723 0 -7.25474
2615115 1 228.079 219.592 184.569 0 -6.82104
913868 1 197.687 167.304 186.979 0 -7.47074
899945 1 190.875 174.978 187.678 0 -7.50453
913734 1 161.015 164.224 189.742 0 -6.26155
899586 1 196.551 167.19 189.436 0 -7.44988
927057 1 167.412 135.492 192.984 0 -6.27569
2659982 1 184.579 266.311 196.098 0 -6.29018
2695994 1 224.825 72.9813 203.757 0 -6.25466
1001704 1 191.13 206.925 205.835 0 -7.44176
973143 1 187.935 210.317 205.627 0 -8.41721
973262 1 184.712 213.365 205.581 0 -8.30961
2717704 1 190.877 269.515 206.91 0 -6.82408
2715662 1 191.104 210.209 208.782 0 -8.27116
2730062 1 187.902 213.433 208.824 0 -8.72075
1016464 1 191.152 216.645 212.08 0 -6.74644
2773384 1 190.955 216.472 221.754 0 -6.88789
1104420 1 180.067 253.41 229.05 0 -6.97927
2846330 1 146.335 243.952 237.601 0 -6.25356
581944 1 191.343 146.698 117.954 0 -6.25527
611824 1 191.361 175.422 122.267 0 -6.82417
753544 1 189.53 114.608 154.293 0 -6.5922
838876 1 229.609 86.0815 173.461 0 -6.82323
853156 1 229.729 82.8256 176.717 0 -6.54552
2554739 1 175.205 144.919 175.572 0 -6.48243
2540457 1 176.828 149.833 176.704 0 -7.67418
827703 1 188.355 168.994 175.651 0 -7.56492
2583418 1 173.392 146.832 180.053 0 -7.27178
870060 1 176.748 149.757 179.877 0 -8.54876
855660 1 179.857 149.725 179.829 0 -7.66024
870179 1 176.808 152.869 179.901 0 -8.05302
2627947 1 194.537 175.176 178.295 0 -7.15539
855658 1 173.41 149.776 182.929 0 -7.43396
884579 1 176.693 153.073 182.866 0 -7.45309
2627705 1 195.583 173.446 182.871 0 -7.25954
900064 1 192.389 176.502 183.057 0 -7.35537
928148 1 199.446 163.591 186.374 0 -7.06739
901515 1 226.311 218.013 186.341 0 -6.53619
913986 1 195.378 165.632 187.746 0 -7.93414
899467 1 197.896 165.126 188.425 0 -7.23423
910990 1 207.283 89.2808 191.348 0 -6.25448
971701 1 181.766 170.265 202.132 0 -6.27571
958743 1 186.387 208.589 204.176 0 -7.49109
2715541 1 186.28 211.719 204.039 0 -8.26322
944222 1 189.473 208.689 207.191 0 -8.431
1001824 1 192.711 208.674 207.187 0 -7.65284
2715422 1 186.351 211.915 207.185 0 -8.74852
1002063 1 189.484 211.811 207.235 0 -8.74317
944579 1 183.044 214.975 207.258 0 -8.19143
2701382 1 186.275 214.944 207.214 0 -8.69443
958982 1 186.177 218.003 207.293 0 -7.82452
1004104 1 189.298 267.746 208.679 0 -6.54062
1016344 1 189.539 211.901 210.386 0 -8.32831
1002183 1 186.302 215.078 210.367 0 -8.31939
2729943 1 186.345 211.937 213.501 0 -7.93881
1031570 1 144.749 232.799 214.918 0 -6.25464
1060025 1 191.342 216.86 224.344 0 -6.89194
2817899 1 178.423 251.766 227.532 0 -6.59767
1104421 1 181.809 255.155 230.847 0 -6.82562
