ITEM: TIMESTEP
89545
ITEM: NUMBER OF ATOMS
90
ITEM: BOX BOUNDS pp pp pp
0 360
0 360
0 360
ITEM: ATOMS id type x y z
696410 1 147.75 129.75 144.75
784006 1 135.75 159.75 162.75
798406 1 135.75 159.75 165.75
798426 1 195.75 159.75 165.75
813160 1 117.75 168.75 168.75
827681 1 120.75 171.75 171.75
827809 1 144.75 174.75 171.75
841872 1 213.75 165.75 174.75
841963 1 126.75 168.75 174.75
842203 1 126.75 174.75 174.75
856599 1 114.75 174.75 177.75
856843 1 126.75 180.75 177.75
870432 1 213.75 159.75 180.75
870649 1 144.75 165.75 180.75
870882 1 123.75 171.75 180.75
871000 1 117.75 174.75 180.75
871002 1 123.75 174.75 180.75
871243 1 126.75 180.75 180.75
884713 1 216.75 156.75 183.75
884714 1 219.75 156.75 183.75
885165 1 132.75 168.75 183.75
885282 1 123.75 171.75 183.75
885400 1 117.75 174.75 183.75
885640 1 117.75 180.75 183.75
899679 1 114.75 171.75 186.75
912899 1 174.75 141.75 189.75
913871 1 210.75 165.75 189.75
914203 1 126.75 174.75 189.75
914204 1 129.75 174.75 189.75
914445 1 132.75 180.75 189.75
914685 1 132.75 186.75 189.75
927417 1 168.75 144.75 192.75
928363 1 126.75 168.75 192.75
929446 1 135.75 195.75 192.75
1085199 1 114.75 129.75 225.75
1198952 1 93.75 93.75 249.75
1213593 1 96.75 99.75 252.75
1213715 1 102.75 102.75 252.75
1242271 1 90.75 96.75 258.75
1257034 1 99.75 105.75 261.75
1257636 1 105.75 120.75 261.75
1285352 1 93.75 93.75 267.75
1286312 1 93.75 117.75 267.75
1286431 1 90.75 120.75 267.75
1300352 1 93.75 108.75 270.75
1300703 1 66.75 117.75 270.75
1343313 1 96.75 102.75 279.75
1357835 1 102.75 105.75 282.75
2395851 1 152.25 137.25 140.25
2483320 1 119.25 164.25 158.25
2496175 1 164.25 125.25 161.25
2497603 1 128.25 161.25 161.25
2497844 1 131.25 167.25 161.25
2526526 1 137.25 164.25 167.25
2540918 1 113.25 164.25 170.25
2541767 1 140.25 185.25 170.25
2555350 1 209.25 164.25 173.25
2555440 1 119.25 167.25 173.25
2569001 1 122.25 146.25 176.25
2569750 1 209.25 164.25 176.25
2569840 1 119.25 167.25 176.25
2569842 1 125.25 167.25 176.25
2569846 1 137.25 167.25 176.25
2583182 1 185.25 140.25 179.25
2584001 1 122.25 161.25 179.25
2584240 1 119.25 167.25 179.25
2584272 1 215.25 167.25 179.25
2584273 1 218.25 167.25 179.25
2598759 1 116.25 170.25 182.25
2598763 1 128.25 170.25 182.25
2598881 1 122.25 173.25 182.25
2598883 1 128.25 173.25 182.25
2612100 1 179.25 143.25 185.25
2612724 1 251.25 158.25 185.25
2613199 1 236.25 170.25 185.25
2613285 1 134.25 173.25 185.25
2627473 1 218.25 167.25 188.25
2627556 1 107.25 170.25 188.25
2641263 1 188.25 152.25 191.25
2641631 1 212.25 161.25 191.25
2656842 1 125.25 182.25 194.25
2698863 1 188.25 152.25 203.25
2856039 1 116.25 122.25 236.25
2899714 1 101.25 134.25 245.25
2940873 1 98.25 83.25 254.25
2956234 1 101.25 107.25 257.25
2970393 1 98.25 101.25 260.25
2985275 1 104.25 113.25 263.25
2985393 1 98.25 116.25 263.25
3028350 1 89.25 110.25 272.25
