ITEM: TIMESTEP
87312
ITEM: NUMBER OF ATOMS
84
ITEM: BOX BOUNDS pp pp pp
0 360
0 360
0 360
ITEM: ATOMS id type x y z
582064 1 189.75 150.75 120.75
596465 1 192.75 150.75 123.75
639785 1 192.75 153.75 132.75
639906 1 195.75 156.75 132.75
654186 1 195.75 153.75 135.75
654305 1 192.75 156.75 135.75
669544 1 189.75 177.75 138.75
682139 1 174.75 132.75 141.75
855766 1 135.75 153.75 177.75
883984 1 189.75 138.75 183.75
913260 1 177.75 150.75 189.75
913381 1 180.75 153.75 189.75
927661 1 180.75 150.75 192.75
927780 1 177.75 153.75 192.75
970255 1 162.75 135.75 201.75
972419 1 174.75 189.75 201.75
986698 1 171.75 186.75 204.75
986819 1 174.75 189.75 204.75
986820 1 177.75 189.75 204.75
1001096 1 165.75 186.75 207.75
1001097 1 168.75 186.75 207.75
1001217 1 168.75 189.75 207.75
1001218 1 171.75 189.75 207.75
1001219 1 174.75 189.75 207.75
1001339 1 174.75 192.75 207.75
1001340 1 177.75 192.75 207.75
1015616 1 165.75 189.75 210.75
1015617 1 168.75 189.75 210.75
1015738 1 171.75 192.75 210.75
1015739 1 174.75 192.75 210.75
1015858 1 171.75 195.75 210.75
1030016 1 165.75 189.75 213.75
1030135 1 162.75 192.75 213.75
1030136 1 165.75 192.75 213.75
1030137 1 168.75 192.75 213.75
1043948 1 201.75 177.75 216.75
1073823 1 186.75 204.75 222.75
1088103 1 186.75 201.75 225.75
1145928 1 141.75 207.75 237.75
1160343 1 186.75 207.75 240.75
1174744 1 189.75 207.75 243.75
1189373 1 156.75 213.75 246.75
1203652 1 153.75 210.75 249.75
1203653 1 156.75 210.75 249.75
2353385 1 194.25 155.25 131.25
2413018 1 173.25 206.25 143.25
2427419 1 176.25 206.25 146.25
2453954 1 221.25 149.25 152.25
2454044 1 131.25 152.25 152.25
2513349 1 206.25 194.25 164.25
2571051 1 152.25 197.25 176.25
2583765 1 134.25 155.25 179.25
2597464 1 191.25 137.25 182.25
2699342 1 185.25 164.25 203.25
2700298 1 173.25 188.25 203.25
2714697 1 170.25 188.25 206.25
2714698 1 173.25 188.25 206.25
2714819 1 176.25 191.25 206.25
2714820 1 179.25 191.25 206.25
2728975 1 164.25 185.25 209.25
2729094 1 161.25 188.25 209.25
2729095 1 164.25 188.25 209.25
2729096 1 167.25 188.25 209.25
2729217 1 170.25 191.25 209.25
2729218 1 173.25 191.25 209.25
2729339 1 176.25 194.25 209.25
2729340 1 179.25 194.25 209.25
2743495 1 164.25 188.25 212.25
2743616 1 167.25 191.25 212.25
2743617 1 170.25 191.25 212.25
2743737 1 170.25 194.25 212.25
2757767 1 140.25 185.25 215.25
2802885 1 134.25 233.25 224.25
2859527 1 140.25 209.25 236.25
2875365 1 134.25 245.25 239.25
2902744 1 191.25 209.25 245.25
2917019 1 176.25 206.25 248.25
2917133 1 158.25 209.25 248.25
2917138 1 173.25 209.25 248.25
2917252 1 155.25 212.25 248.25
2917253 1 158.25 212.25 248.25
2976291 1 152.25 248.25 260.25
3133013 1 158.25 206.25 293.25
3147293 1 158.25 203.25 296.25
