ITEM: TIMESTEP
90260
ITEM: NUMBER OF ATOMS
58
ITEM: BOX BOUNDS pp pp pp
0 360
0 360
0 360
ITEM: ATOMS id type x y z
585697 1 288.75 240.75 120.75
599976 1 285.75 237.75 123.75
669782 1 183.75 183.75 138.75
684820 1 297.75 198.75 141.75
684929 1 264.75 201.75 141.75
684941 1 300.75 201.75 141.75
713464 1 189.75 195.75 147.75
713622 1 303.75 198.75 147.75
728238 1 231.75 204.75 150.75
740222 1 183.75 144.75 153.75
770109 1 204.75 171.75 159.75
770228 1 201.75 174.75 159.75
770348 1 201.75 177.75 159.75
787291 1 270.75 240.75 162.75
787410 1 267.75 243.75 162.75
801811 1 270.75 243.75 165.75
801930 1 267.75 246.75 165.75
803253 1 276.75 279.75 165.75
814616 1 165.75 204.75 168.75
828895 1 162.75 201.75 171.75
857262 1 303.75 189.75 177.75
869692 1 153.75 141.75 180.75
883972 1 153.75 138.75 183.75
886994 1 219.75 213.75 183.75
901266 1 195.75 210.75 186.75
914695 1 162.75 186.75 189.75
972909 1 204.75 201.75 201.75
2299176 1 287.25 239.25 119.25
2313575 1 284.25 239.25 122.25
2313576 1 287.25 239.25 122.25
2381932 1 155.25 149.25 137.25
2395247 1 140.25 122.25 140.25
2396333 1 158.25 149.25 140.25
2412700 1 299.25 197.25 143.25
2412809 1 266.25 200.25 143.25
2412821 1 302.25 200.25 143.25
2413136 1 167.25 209.25 143.25
2441838 1 233.25 206.25 149.25
2482253 1 158.25 137.25 158.25
2483589 1 206.25 170.25 158.25
2483828 1 203.25 176.25 158.25
2498468 1 203.25 182.25 161.25
2500771 1 272.25 239.25 161.25
2500892 1 275.25 242.25 161.25
2501009 1 266.25 245.25 161.25
2501130 1 269.25 248.25 161.25
2512995 1 224.25 185.25 164.25
2513690 1 149.25 203.25 164.25
2526153 1 98.25 155.25 167.25
2528095 1 164.25 203.25 167.25
2528347 1 200.25 209.25 167.25
2542494 1 161.25 203.25 170.25
2542495 1 164.25 203.25 170.25
2542627 1 200.25 206.25 170.25
2542746 1 197.25 209.25 170.25
2569490 1 149.25 158.25 176.25
2597452 1 155.25 137.25 182.25
2642694 1 161.25 188.25 191.25
