ITEM: TIMESTEP
92000
ITEM: NUMBER OF ATOMS
70
ITEM: BOX BOUNDS pp pp pp
0 360
0 360
0 360
ITEM: ATOMS id type x y z c_myKE c_myPE
2166640 1 114.463 165.473 85.7133 0.285277 -6.49996
2340893 1 156.154 203.795 123.908 0.160331 -6.05243
2411085 1 132.24 157.705 143.091 0.0107904 -6.84102
2439534 1 159.037 146.268 148.279 0.12731 -6.95111
2439654 1 158.836 149.671 148.586 0.29325 -7.14752
2482852 1 152.598 149.432 155.847 0.00166776 -6.80282
2482973 1 155.753 152.628 155.931 0.151465 -6.84428
2526528 1 138.647 164.116 165.397 0.216146 -6.57739
813049 1 139.803 162.259 167.552 0.0176446 -7.55836
2639226 1 199.008 95.2087 192.679 0.0818221 -6.19823
2657574 1 160.687 202.326 194.02 0.265585 -5.48524
2688288 1 140.234 251.68 200.69 0.478467 -6.35056
1016475 1 224.71 210.351 213.198 0.0785983 -5.69197
2772301 1 179.811 187.787 222.922 0.163422 -7.21937
2786700 1 178.192 189.447 221.765 0.0568793 -7.3683
2800980 1 176.868 187.907 226.013 0.0428468 -7.69031
1058821 1 179.866 191.041 226.034 0.326443 -7.16541
1044788 1 202.104 197.42 226.151 0.180972 -7.40816
2786462 1 184.51 183.276 228.3 0.257803 -7.03982
1087502 1 180.06 188.015 229.122 0.0848065 -7.46585
1087619 1 176.954 191.226 229.212 0.140369 -7.3315
1116669 1 205.671 190.624 232.396 0.234314 -6.91743
2830149 1 208.644 191.035 232.675 0.326792 -6.6936
2844429 1 205.824 194.191 232.235 0.0971352 -7.09165
1129140 1 178.037 148.488 238.74 0.142743 -6.30826
1174267 1 200.609 196.993 250.101 0.0842477 -7.73577
1217466 1 195.934 195.949 254.609 0.676664 -7.32345
2917627 1 203.864 224.695 254.713 0.0239613 -7.72219
2934060 1 180.327 277.254 254.836 0.045674 -5.57434
2931186 1 199.304 198.882 257.819 0.0132554 -6.86741
2931547 1 199.927 210.188 257.732 0.0350642 -7.0853
2960579 1 175.027 216.607 263.243 0.127231 -6.23296
2989874 1 224.777 229.104 267.494 0.0510407 -6.23309
3190278 1 237.438 197.385 314.003 0.0247734 -6.09041
3277636 1 231.098 223.114 333.258 0.138254 -6.25969
467336 1 163.931 160.886 92.2313 0.101567 -5.92999
683458 1 170.498 163.88 140.198 0.0746201 -6.54882
2439766 1 133.926 156.501 144.932 0.236559 -6.92644
2425486 1 133.772 159.291 144.955 0.0553138 -6.6567
711654 1 157.622 147.923 146.767 0.286212 -6.73814
798648 1 136.803 162.568 163.953 0.0648701 -6.71499
899099 1 173.248 154.044 188.184 0.0964234 -7.10691
2642461 1 182.9 182.761 189.035 0.126186 -6.42792
913379 1 173.619 151.154 191.351 0.0936864 -6.81216
927900 1 176.561 154.339 191.087 0.0141238 -6.33088
2684956 1 233.251 162.298 200.949 0.381703 -6.73676
2685077 1 236.082 165.737 201.974 0.0103595 -7.47098
971478 1 236.011 163.814 204.01 0.0662628 -7.19902
989210 1 144.499 253.199 205.064 0.0924353 -6.84533
1043348 1 205.28 162.504 217.939 0.102301 -6.60875
1042617 1 169.004 141.478 219.972 0.175967 -7.16989
1042736 1 166.02 144.672 219.966 0.00374627 -6.83242
2757899 1 175.408 192.401 221.245 0.145852 -6.57385
2786580 1 175.288 185.834 224.474 0.546935 -6.99666
1087986 1 197.622 202.187 227.909 0.277085 -6.54561
1076103 1 186.066 265.619 226.564 0.119622 -6.94133
1102027 1 203.986 192.564 230.611 0.1382 -7.31031
2844667 1 200.537 201.987 231.048 0.383978 -6.81317
1175700 1 178.234 235.92 249.73 0.0817062 -6.36698
1187697 1 168.776 170.464 251.874 0.00633033 -6.34164
1203307 1 200.859 197.364 252.996 0.296516 -8.08453
1189990 1 205.541 226.228 253.045 0.107363 -7.06463
1191800 1 240.357 280.518 251.944 0.0466217 -6.68511
2945587 1 197.69 197.597 256.134 0.156384 -7.82207
1217589 1 200.788 197.48 255.995 0.270001 -7.99314
1189629 1 202.123 223.092 256.424 0.224942 -6.58256
1189868 1 205.34 226.28 256.461 0.339749 -7.01758
1203068 1 200.941 194.335 259.434 0.129213 -6.96426
1218307 1 205.377 223.322 259.177 1.1164 -7.57517
3004384 1 192.544 233.106 268.89 0.0274017 -6.10265
