ITEM: TIMESTEP
95625
ITEM: NUMBER OF ATOMS
92
ITEM: BOX BOUNDS pp pp pp
0 360
0 360
0 360
ITEM: ATOMS id type x y z c_myKE c_myPE
2425009 1 145.391 143.465 143.384 0 -7.35394
2410728 1 142.128 145.964 141.973 0 -7.11283
711529 1 143.456 143.377 145.136 0 -7.51646
2455014 1 161.048 176.989 151.437 0 -6.2542
2511645 1 132.166 151.302 162.152 0 -6.54412
2540099 1 175.25 142.847 170.331 0 -7.28889
2626011 1 149.522 127.178 187.787 0 -6.25614
2685310 1 210.157 171.852 200.545 0 -6.82319
986230 1 210.029 175.108 203.804 0 -6.55086
2699210 1 146.339 159.08 205.674 0 -6.25565
2727061 1 181.42 133.509 210.072 0 -7.51652
2727182 1 184.731 136.832 210.028 0 -6.56919
2741462 1 184.726 133.458 213.398 0 -6.5734
1029190 1 206.957 167.403 215.24 0 -6.25575
2758169 1 272.546 196.231 216.656 0 -6.54239
1030862 1 186.714 215.129 215.183 0 -6.87486
1058481 1 243.867 180.433 219.782 0 -6.87455
2786459 1 176.987 186.544 219.662 0 -6.85263
2758982 1 186.436 218.46 218.331 0 -6.7624
1058361 1 245.317 181.62 221.687 0 -6.74632
1073219 1 173.731 186.653 222.93 0 -6.5543
2814553 1 219.856 162.062 229.385 0 -6.92148
1102136 1 159.116 196.229 238.822 0 -7.62162
2857743 1 187.809 164.205 240.768 0 -6.25516
2900937 1 170.612 164.198 250.342 0 -6.25776
2902269 1 208.821 197.236 250.255 0 -6.54836
2916670 1 212.076 197.356 253.512 0 -6.82494
2932250 1 148.28 231.203 256.691 0 -6.25531
1232222 1 186.569 206.92 263.088 0 -6.25933
2986364 1 127.207 136.753 267.547 0 -6.82151
2974372 1 154.507 202.622 266.123 0 -6.59498
2986363 1 125.947 138.672 269.467 0 -6.8216
3003297 1 170.565 203.636 272.581 0 -6.51069
3017698 1 173.813 203.7 275.856 0 -6.82355
3076016 1 165.469 224.957 286.652 0 -6.84455
3090784 1 192.948 232.435 291.797 0 -6.25624
3179451 1 149.388 295.131 311.307 0 -6.78005
1465970 1 146.141 296.547 313.811 0 -7.07159
3193970 1 147.958 298.371 313.806 0 -7.04726
3220848 1 139.958 247.141 318.559 0 -6.25615
3223736 1 167.418 324.946 321.76 0 -6.25596
3265866 1 199.317 293.049 330.082 0 -6.25229
3279407 1 138.711 270.715 333.265 0 -6.25508
3293949 1 208.887 273.906 334.509 0 -6.2551
3367609 1 141.531 315.553 350.154 0 -8.05584
3381648 1 141.532 311.87 353.835 0 -8.05548
3381887 1 139.636 313.766 353.836 0 -8.05584
3381889 1 145.042 317.278 355.561 0 -7.66605
625143 1 188.162 144.734 125.58 0 -6.25412
682977 1 167.086 154.3 140.274 0 -6.25516
2410609 1 141.591 141.506 143.313 0 -6.94126
798166 1 133.937 153.073 163.732 0 -6.83065
826620 1 177.153 144.571 170.412 0 -7.85365
826740 1 178.883 146.469 170.494 0 -7.28365
853732 1 153.066 96.8721 176.626 0 -6.25351
840054 1 159.363 118.074 175.297 0 -6.54962
854455 1 162.619 117.943 178.552 0 -6.8198
2684354 1 221.313 147.898 200.886 0 -6.25701
2699849 1 271.109 178.588 205.331 0 -6.259
2714124 1 256.412 170.256 208.531 0 -6.82094
1014806 1 259.66 170.114 211.79 0 -6.5525
1002184 1 189.287 214.992 211.69 0 -6.61742
1013089 1 143.496 125.599 213.633 0 -6.82819
2741088 1 141.563 127.51 214.933 0 -6.82198
1030170 1 274.317 194.647 214.885 0 -6.82489
2756462 1 186.214 147.965 216.892 0 -6.26115
1044080 1 243.559 183.118 219.919 0 -7.0483
1058258 1 301.137 173.315 223.157 0 -6.54479
1071913 1 219.934 156.408 226.273 0 -6.45912
1086937 1 296.543 172.299 227.75 0 -6.54472
1101073 1 218.014 163.962 231.026 0 -6.66285
1130935 1 159.414 194.69 240.923 0 -7.30375
1159855 1 162.877 196.008 240.71 0 -7.33417
1131174 1 160.78 197.548 240.481 0 -7.69977
2858349 1 210.489 179.807 242.368 0 -6.25909
2859054 1 161.012 195.99 242.559 0 -7.34886
2873456 1 164.115 198.472 243.815 0 -6.34008
1174520 1 242.397 204.078 248.743 0 -6.25482
1260773 1 156.194 201.121 267.809 0 -7.00047
1275174 1 159.416 200.935 271.028 0 -6.96579
1292453 1 157.502 275.509 272.303 0 -6.25519
1289575 1 162.635 200.998 274.252 0 -6.86074
1333498 1 170.29 220.046 281.86 0 -6.28377
1346561 1 117.981 184.938 287.016 0 -6.25486
1362537 1 167.239 226.532 288.421 0 -6.55281
1376322 1 119.227 210.459 294.636 0 -6.25529
1376463 1 186.242 213.64 293.417 0 -6.25844
1463570 1 146.687 232.787 310.584 0 -6.25631
1640078 1 106.535 331.6 348.762 0 -6.54729
1640197 1 103.279 334.858 348.889 0 -6.82114
3367615 1 162.639 320.17 354.017 0 -6.25221
1669008 1 140.305 334.876 355.265 0 -6.25348
