ITEM: TIMESTEP
94521
ITEM: NUMBER OF ATOMS
78
ITEM: BOX BOUNDS pp pp pp
0 360
0 360
0 360
ITEM: ATOMS id type x y z
698937 1 168.75 192.75 144.75
712720 1 117.75 177.75 147.75
726884 1 129.75 171.75 150.75
741400 1 117.75 174.75 153.75
755568 1 141.75 168.75 156.75
769851 1 150.75 165.75 159.75
769852 1 153.75 165.75 159.75
784245 1 132.75 165.75 162.75
784491 1 150.75 171.75 162.75
784604 1 129.75 174.75 162.75
798894 1 159.75 171.75 165.75
799253 1 156.75 180.75 165.75
812812 1 153.75 159.75 168.75
841489 1 144.75 156.75 174.75
855529 1 144.75 147.75 177.75
856128 1 141.75 162.75 177.75
869929 1 144.75 147.75 180.75
927044 1 129.75 135.75 192.75
955025 1 192.75 114.75 198.75
955733 1 156.75 132.75 198.75
984292 1 153.75 126.75 204.75
989227 1 198.75 249.75 204.75
1013103 1 186.75 126.75 210.75
1027628 1 201.75 129.75 213.75
1042146 1 195.75 132.75 216.75
1042386 1 195.75 138.75 216.75
1055715 1 222.75 111.75 219.75
1056068 1 201.75 120.75 219.75
1070354 1 219.75 117.75 222.75
1084518 1 231.75 111.75 225.75
1084756 1 225.75 117.75 225.75
1100457 1 168.75 150.75 228.75
1113201 1 240.75 108.75 231.75
1119918 1 231.75 276.75 231.75
1127369 1 264.75 102.75 234.75
1192644 1 249.75 294.75 246.75
1221686 1 255.75 300.75 252.75
1264887 1 258.75 300.75 261.75
1265007 1 258.75 303.75 261.75
1279409 1 264.75 303.75 264.75
2398018 1 173.25 191.25 140.25
2470741 1 182.25 209.25 155.25
2483444 1 131.25 167.25 158.25
2483688 1 143.25 173.25 158.25
2513685 1 134.25 203.25 164.25
2526653 1 158.25 167.25 167.25
2526770 1 149.25 170.25 167.25
2528087 1 140.25 203.25 167.25
2541053 1 158.25 167.25 170.25
2541056 1 167.25 167.25 170.25
2555330 1 149.25 164.25 173.25
2555456 1 167.25 167.25 173.25
2555695 1 164.25 173.25 173.25
2570090 1 149.25 173.25 176.25
2583531 1 152.25 149.25 179.25
2600693 1 158.25 218.25 182.25
2612935 1 164.25 164.25 185.25
2627209 1 146.25 161.25 188.25
2629742 1 185.25 224.25 188.25
2654105 1 194.25 113.25 194.25
2654323 1 128.25 119.25 194.25
2670173 1 158.25 155.25 197.25
2683262 1 185.25 122.25 200.25
2697894 1 161.25 128.25 203.25
2702946 1 197.25 254.25 203.25
2712302 1 185.25 128.25 206.25
2717107 1 200.25 248.25 206.25
2726826 1 197.25 131.25 209.25
2741348 1 203.25 134.25 212.25
2746150 1 209.25 254.25 212.25
2770134 1 161.25 134.25 218.25
2798705 1 194.25 128.25 224.25
2798706 1 197.25 128.25 224.25
2841079 1 236.25 107.25 233.25
2841080 1 239.25 107.25 233.25
2855129 1 266.25 98.25 236.25
2855480 1 239.25 107.25 236.25
2978487 1 260.25 302.25 260.25
