ITEM: TIMESTEP
91000
ITEM: NUMBER OF ATOMS
50
ITEM: BOX BOUNDS pp pp pp
0 360
0 360
0 360
ITEM: ATOMS id type x y z
682971 1 150.75 153.75 141.75
725452 1 153.75 135.75 150.75
725573 1 156.75 138.75 150.75
799013 1 156.75 174.75 165.75
931003 1 126.75 234.75 192.75
943153 1 216.75 177.75 195.75
972061 1 180.75 180.75 201.75
973133 1 156.75 207.75 201.75
973134 1 159.75 207.75 201.75
987533 1 156.75 207.75 204.75
987652 1 153.75 210.75 204.75
987771 1 150.75 213.75 204.75
1001932 1 153.75 207.75 207.75
1002049 1 144.75 210.75 207.75
1002050 1 147.75 210.75 207.75
1002051 1 150.75 210.75 207.75
1016449 1 144.75 210.75 210.75
1016450 1 147.75 210.75 210.75
1016451 1 150.75 210.75 210.75
1016569 1 144.75 213.75 210.75
1030848 1 141.75 210.75 213.75
1045248 1 141.75 210.75 216.75
2295780 1 179.25 155.25 119.25
2568895 1 164.25 143.25 176.25
2571766 1 137.25 215.25 176.25
2597592 1 215.25 140.25 182.25
2601642 1 125.25 242.25 182.25
2644139 1 176.25 224.25 191.25
2701013 1 158.25 206.25 203.25
2701132 1 155.25 209.25 203.25
2701251 1 152.25 212.25 203.25
2712764 1 131.25 140.25 206.25
2715412 1 155.25 206.25 206.25
2715531 1 152.25 209.25 206.25
2715532 1 155.25 209.25 206.25
2715649 1 146.25 212.25 206.25
2715650 1 149.25 212.25 206.25
2715651 1 152.25 212.25 206.25
2715770 1 149.25 215.25 206.25
2726824 1 191.25 131.25 209.25
2729931 1 152.25 209.25 209.25
2741223 1 188.25 131.25 212.25
2744209 1 146.25 206.25 212.25
2744328 1 143.25 209.25 212.25
2744329 1 146.25 209.25 212.25
2744330 1 149.25 209.25 212.25
2744448 1 143.25 212.25 212.25
2758729 1 146.25 209.25 215.25
2758847 1 140.25 212.25 215.25
2812614 1 161.25 116.25 227.25
