ITEM: TIMESTEP
86000
ITEM: NUMBER OF ATOMS
59
ITEM: BOX BOUNDS pp pp pp
0 360
0 360
0 360
ITEM: ATOMS id type x y z
583506 1 195.75 186.75 120.75
584465 1 192.75 210.75 120.75
598380 1 177.75 198.75 123.75
598504 1 189.75 201.75 123.75
598505 1 192.75 201.75 123.75
612892 1 153.75 201.75 126.75
612900 1 177.75 201.75 126.75
655970 1 147.75 198.75 135.75
684773 1 156.75 198.75 141.75
697009 1 144.75 144.75 144.75
697131 1 150.75 147.75 144.75
770565 1 132.75 183.75 159.75
799607 1 138.75 189.75 165.75
813765 1 132.75 183.75 168.75
813768 1 141.75 183.75 168.75
813769 1 144.75 183.75 168.75
813770 1 147.75 183.75 168.75
828650 1 147.75 195.75 171.75
842566 1 135.75 183.75 174.75
843171 1 150.75 198.75 174.75
871974 1 159.75 198.75 180.75
871984 1 189.75 198.75 180.75
885773 1 156.75 183.75 183.75
901142 1 183.75 207.75 186.75
901258 1 171.75 210.75 186.75
914209 1 144.75 174.75 189.75
915419 1 174.75 204.75 189.75
929939 1 174.75 207.75 192.75
958017 1 168.75 189.75 198.75
1059551 1 210.75 207.75 219.75
2268427 1 200.25 191.25 113.25
2296987 1 200.25 185.25 119.25
2355058 1 173.25 197.25 131.25
2355174 1 161.25 200.25 131.25
2397894 1 161.25 188.25 140.25
2398620 1 179.25 206.25 140.25
2411689 1 146.25 173.25 143.25
2425129 1 146.25 149.25 146.25
2426934 1 161.25 194.25 146.25
2527363 1 128.25 185.25 167.25
2541644 1 131.25 182.25 170.25
2541769 1 146.25 185.25 170.25
2542008 1 143.25 191.25 170.25
2542013 1 158.25 191.25 170.25
2542860 1 179.25 212.25 170.25
2555928 1 143.25 179.25 173.25
2556047 1 140.25 182.25 173.25
2556284 1 131.25 188.25 173.25
2569021 1 182.25 146.25 176.25
2584365 1 134.25 170.25 179.25
2584727 1 140.25 179.25 179.25
2613285 1 134.25 173.25 185.25
2628899 1 176.25 203.25 188.25
2671497 1 170.25 188.25 197.25
2701509 1 206.25 218.25 203.25
2773030 1 209.25 206.25 218.25
2801830 1 209.25 206.25 224.25
2802072 1 215.25 212.25 224.25
2845151 1 212.25 209.25 233.25
