ITEM: TIMESTEP
86326
ITEM: NUMBER OF ATOMS
59
ITEM: BOX BOUNDS pp pp pp
0 360
0 360
0 360
ITEM: ATOMS id type x y z c_myKE c_myPE
2296614 1 161.08 178.209 113.215 0 -6.26879
611938 1 168.643 176.921 122.734 0 -6.29033
2371020 1 178.265 240.803 130.437 0 -6.25778
2410737 1 170.649 146.325 141.948 0 -6.25147
2427174 1 161.006 200.734 146.443 0 -7.70583
2441456 1 165.572 202.431 145.116 0 -7.87494
2441455 1 160.945 200.651 149.597 0 -8.28236
2441575 1 162.504 202.339 148.181 0 -8.45033
2441576 1 165.639 202.404 148.248 0 -8.70195
2441696 1 165.602 205.617 148.24 0 -8.07046
713575 1 162.475 196.118 151.292 0 -8.38049
2455855 1 165.671 199.239 151.392 0 -8.81559
2455976 1 165.67 202.326 151.339 0 -8.76906
684294 1 168.787 202.431 151.431 0 -7.92399
2469895 1 159.116 183.374 154.626 0 -7.10691
2484292 1 154.681 187.68 155.83 0 -7.47226
755108 1 203.799 157.842 157.908 0 -6.25477
2513092 1 154.683 184.513 158.968 0 -7.45203
742015 1 158.924 186.657 157.905 0 -7.3617
2484777 1 168.503 202.543 157.92 0 -7.40003
2615083 1 124.02 218.49 186.602 0 -6.24976
2641025 1 196.155 143.144 191.037 0 -6.25385
929466 1 199.187 197.276 192.802 0 -6.54504
2686626 1 200.64 203.714 205.59 0 -7.64426
2715066 1 199.317 199.289 210.148 0 -7.76083
2715187 1 200.768 203.663 208.681 0 -8.21065
2729826 1 203.561 204.108 209.164 0 -8.57004
2701025 1 199.48 207.819 209.681 0 -7.98288
2729588 1 203.9 200.467 211.873 0 -7.62269
2744347 1 202.849 207.541 213.417 0 -8.12837
1002068 1 200.947 209.356 213.509 0 -7.95516
2816107 1 205.671 200.699 225.754 0 -7.12485
1088228 1 205.79 203.634 226.191 0 -6.98708
2787546 1 199.331 213.35 226.017 0 -6.3772
599574 1 159.464 232.807 118.028 0 -6.25285
611674 1 95.681 170.257 122.448 0 -6.25359
727975 1 162.55 199.075 151.254 0 -8.5999
727976 1 164.087 200.761 149.769 0 -8.79164
728097 1 167.246 203.987 149.817 0 -8.34434
727734 1 160.738 191.557 152.967 0 -7.36964
727856 1 160.934 194.511 152.94 0 -8.01312
2455735 1 162.636 195.945 154.484 0 -8.49009
2455854 1 164.091 197.599 152.925 0 -8.73904
742256 1 165.678 199.143 154.452 0 -8.48061
742377 1 165.646 202.296 154.451 0 -8.51625
2454649 1 146.725 163.881 156.288 0 -6.2576
2484052 1 153.121 186.25 157.558 0 -7.1548
2484414 1 161.042 194.416 156.203 0 -7.81142
756656 1 164.12 197.64 156.143 0 -8.08717
756777 1 167.174 200.635 156.153 0 -7.96024
2657587 1 200.971 198.857 194.557 0 -6.83421
941701 1 181.797 138.358 197.757 0 -6.25293
1001826 1 199.394 205.681 207.577 0 -8.45476
1001706 1 195.887 205.497 210.311 0 -7.56108
1016226 1 199.03 205.303 210.265 0 -8.02963
2743988 1 202.344 202.2 213.544 0 -7.78557
1030508 1 199.274 205.334 213.46 0 -7.77175
1016227 1 204.766 205.743 213.412 0 -7.8137
2787067 1 204.053 202.311 224.37 0 -7.13568
