ITEM: TIMESTEP
102585
ITEM: NUMBER OF ATOMS
81
ITEM: BOX BOUNDS pp pp pp
0 360
0 360
0 360
ITEM: ATOMS id type x y z
497128 1 261.75 186.75 102.75
668390 1 327.75 147.75 138.75
668511 1 330.75 150.75 138.75
683089 1 144.75 156.75 141.75
684196 1 225.75 183.75 141.75
698571 1 150.75 183.75 144.75
698691 1 150.75 186.75 144.75
698692 1 153.75 186.75 144.75
698716 1 225.75 186.75 144.75
713092 1 153.75 186.75 147.75
726759 1 114.75 168.75 150.75
755345 1 192.75 162.75 156.75
755583 1 186.75 168.75 156.75
755702 1 183.75 171.75 156.75
756317 1 228.75 186.75 156.75
756688 1 261.75 195.75 156.75
757665 1 312.75 219.75 156.75
757784 1 309.75 222.75 156.75
757903 1 306.75 225.75 156.75
769982 1 183.75 168.75 159.75
769987 1 198.75 168.75 159.75
770274 1 339.75 174.75 159.75
770395 1 342.75 177.75 159.75
770514 1 339.75 180.75 159.75
770968 1 261.75 192.75 159.75
771101 1 300.75 195.75 159.75
771221 1 300.75 198.75 159.75
784675 1 342.75 174.75 162.75
784794 1 339.75 177.75 162.75
784795 1 342.75 177.75 162.75
784913 1 336.75 180.75 162.75
784914 1 339.75 180.75 162.75
799195 1 342.75 177.75 165.75
799314 1 339.75 180.75 165.75
826185 1 312.75 132.75 171.75
829536 1 285.75 216.75 171.75
857743 1 306.75 201.75 177.75
857862 1 303.75 204.75 177.75
885714 1 339.75 180.75 183.75
885833 1 336.75 183.75 183.75
888932 1 273.75 261.75 183.75
900113 1 336.75 180.75 186.75
900234 1 339.75 183.75 186.75
999590 1 327.75 147.75 207.75
1000916 1 345.75 180.75 207.75
1042198 1 351.75 132.75 216.75
1042550 1 327.75 141.75 216.75
1042671 1 330.75 144.75 216.75
2283116 1 347.25 197.25 116.25
2339338 1 173.25 164.25 128.25
2410969 1 146.25 155.25 143.25
2411723 1 248.25 173.25 143.25
2412291 1 152.25 188.25 143.25
2425182 1 305.25 149.25 146.25
2426571 1 152.25 185.25 146.25
2467991 1 212.25 140.25 155.25
2483344 1 191.25 164.25 158.25
2484316 1 227.25 188.25 158.25
2484701 1 302.25 197.25 158.25
2497987 1 200.25 170.25 161.25
2512555 1 344.25 173.25 164.25
2512675 1 344.25 176.25 164.25
2512794 1 341.25 179.25 164.25
2512913 1 338.25 182.25 164.25
2513034 1 341.25 185.25 164.25
2527194 1 341.25 179.25 167.25
2527314 1 341.25 182.25 167.25
2527315 1 344.25 182.25 167.25
2541944 1 311.25 188.25 170.25
2542063 1 308.25 191.25 170.25
2557536 1 287.25 218.25 173.25
2571341 1 302.25 203.25 176.25
2571342 1 305.25 203.25 176.25
2584917 1 350.25 182.25 179.25
2598544 1 191.25 164.25 182.25
2600980 1 299.25 224.25 182.25
2612384 1 311.25 149.25 185.25
2612503 1 308.25 152.25 185.25
2727469 1 326.25 146.25 209.25
2756271 1 332.25 146.25 215.25
2814117 1 350.25 152.25 227.25
