ITEM: TIMESTEP
99602
ITEM: NUMBER OF ATOMS
90
ITEM: BOX BOUNDS pp pp pp
0 360
0 360
0 360
ITEM: ATOMS id type x y z
668572 1 153.75 153.75 138.75
668693 1 156.75 156.75 138.75
769264 1 189.75 150.75 159.75
797800 1 117.75 144.75 165.75
826136 1 165.75 132.75 171.75
896209 1 144.75 84.75 186.75
896330 1 147.75 87.75 186.75
899468 1 201.75 165.75 186.75
910610 1 147.75 84.75 189.75
926938 1 171.75 132.75 192.75
941691 1 150.75 141.75 195.75
955971 1 150.75 138.75 198.75
956092 1 153.75 141.75 198.75
971453 1 156.75 165.75 201.75
1040935 1 162.75 102.75 216.75
1099731 1 150.75 132.75 228.75
1099732 1 153.75 132.75 228.75
1213486 1 135.75 96.75 252.75
1259924 1 129.75 177.75 261.75
1274205 1 132.75 174.75 264.75
1331929 1 144.75 177.75 276.75
1361208 1 141.75 189.75 282.75
1375488 1 141.75 186.75 285.75
1390129 1 144.75 192.75 288.75
1390248 1 141.75 195.75 288.75
1418808 1 141.75 189.75 294.75
1432382 1 183.75 168.75 297.75
1476412 1 153.75 189.75 306.75
1490687 1 138.75 186.75 309.75
1490812 1 153.75 189.75 309.75
1490813 1 156.75 189.75 309.75
1505214 1 159.75 189.75 312.75
1519493 1 156.75 186.75 315.75
1519494 1 159.75 186.75 315.75
1533894 1 159.75 186.75 318.75
1533895 1 162.75 186.75 318.75
1533896 1 165.75 186.75 318.75
1534015 1 162.75 189.75 318.75
1548175 1 162.75 183.75 321.75
1548295 1 162.75 186.75 321.75
1548296 1 165.75 186.75 321.75
1548416 1 165.75 189.75 321.75
1562576 1 165.75 183.75 324.75
1562696 1 165.75 186.75 324.75
1650657 1 168.75 225.75 342.75
2439427 1 200.25 146.25 149.25
2540809 1 146.25 161.25 170.25
2552947 1 200.25 104.25 173.25
2613302 1 185.25 173.25 185.25
2613788 1 203.25 185.25 185.25
2654937 1 170.25 134.25 194.25
2669691 1 152.25 143.25 197.25
2756337 1 170.25 149.25 215.25
2770738 1 173.25 149.25 218.25
2770857 1 170.25 152.25 218.25
2785247 1 140.25 152.25 221.25
2799654 1 161.25 152.25 224.25
2813211 1 152.25 131.25 227.25
2814174 1 161.25 155.25 227.25
2987804 1 131.25 176.25 263.25
2987805 1 134.25 176.25 263.25
2987924 1 131.25 179.25 263.25
3016120 1 119.25 164.25 269.25
3089328 1 143.25 194.25 284.25
3103014 1 161.25 176.25 287.25
3103135 1 164.25 179.25 287.25
3103487 1 140.25 188.25 287.25
3103606 1 137.25 191.25 287.25
3103727 1 140.25 194.25 287.25
3117888 1 143.25 188.25 290.25
3118247 1 140.25 197.25 290.25
3132287 1 140.25 188.25 293.25
3132408 1 143.25 191.25 293.25
3147395 1 104.25 206.25 296.25
3174528 1 143.25 164.25 302.25
3204412 1 155.25 191.25 308.25
3218693 1 158.25 188.25 311.25
3218813 1 158.25 191.25 311.25
3233092 1 155.25 188.25 314.25
3233093 1 158.25 188.25 314.25
3233094 1 161.25 188.25 314.25
3247373 1 158.25 185.25 317.25
3247494 1 161.25 188.25 317.25
3247614 1 161.25 191.25 317.25
3261774 1 161.25 185.25 320.25
3276175 1 164.25 185.25 323.25
3276296 1 167.25 188.25 323.25
3290576 1 167.25 185.25 326.25
3290697 1 170.25 188.25 326.25
3305096 1 167.25 188.25 329.25
