ITEM: TIMESTEP
93000
ITEM: NUMBER OF ATOMS
87
ITEM: BOX BOUNDS pp pp pp
0 360
0 360
0 360
ITEM: ATOMS id type x y z
558425 1 192.75 279.75 114.75
601744 1 189.75 282.75 123.75
615902 1 183.75 276.75 126.75
644707 1 198.75 276.75 132.75
658866 1 195.75 270.75 135.75
697731 1 150.75 162.75 144.75
697855 1 162.75 165.75 144.75
711529 1 144.75 147.75 147.75
711649 1 144.75 150.75 147.75
711768 1 141.75 153.75 147.75
727250 1 147.75 180.75 150.75
727370 1 147.75 183.75 150.75
729418 1 171.75 234.75 150.75
729897 1 168.75 246.75 150.75
772861 1 180.75 240.75 159.75
786777 1 168.75 228.75 162.75
801169 1 144.75 228.75 165.75
801657 1 168.75 240.75 165.75
801898 1 171.75 246.75 165.75
802387 1 198.75 258.75 165.75
816057 1 168.75 240.75 168.75
816176 1 165.75 243.75 168.75
816534 1 159.75 252.75 168.75
830216 1 165.75 234.75 171.75
830339 1 174.75 237.75 171.75
830457 1 168.75 240.75 171.75
844374 1 159.75 228.75 174.75
845094 1 159.75 246.75 174.75
858531 1 150.75 222.75 177.75
858891 1 150.75 231.75 177.75
858892 1 153.75 231.75 177.75
859011 1 150.75 234.75 177.75
859012 1 153.75 234.75 177.75
873651 1 150.75 240.75 180.75
873776 1 165.75 243.75 180.75
887329 1 144.75 222.75 183.75
887451 1 150.75 225.75 183.75
887452 1 153.75 225.75 183.75
901611 1 150.75 219.75 186.75
902091 1 150.75 231.75 186.75
902684 1 129.75 246.75 186.75
930648 1 141.75 225.75 192.75
931008 1 141.75 234.75 192.75
2229065 1 194.25 287.25 104.25
2358188 1 203.25 275.25 131.25
2373891 1 152.25 308.25 134.25
2388169 1 146.25 305.25 137.25
2388291 1 152.25 308.25 137.25
2388412 1 155.25 311.25 137.25
2396937 1 170.25 164.25 140.25
2428623 1 188.25 236.25 146.25
2456825 1 194.25 221.25 152.25
2458142 1 185.25 254.25 152.25
2472422 1 185.25 251.25 155.25
2472536 1 167.25 254.25 155.25
2485855 1 164.25 227.25 158.25
2500251 1 152.25 227.25 161.25
2514529 1 146.25 224.25 164.25
2514770 1 149.25 230.25 164.25
2528573 1 158.25 215.25 167.25
2528691 1 152.25 218.25 167.25
2529412 1 155.25 236.25 167.25
2529656 1 167.25 242.25 167.25
2529657 1 170.25 242.25 167.25
2529775 1 164.25 245.25 167.25
2543567 1 140.25 230.25 170.25
2543812 1 155.25 236.25 170.25
2544059 1 176.25 242.25 170.25
2572490 1 149.25 233.25 176.25
2572491 1 152.25 233.25 176.25
2572610 1 149.25 236.25 176.25
2572732 1 155.25 239.25 176.25
2572734 1 161.25 239.25 176.25
2586528 1 143.25 224.25 179.25
2586529 1 146.25 224.25 179.25
2586531 1 152.25 224.25 179.25
2587013 1 158.25 236.25 179.25
2587014 1 161.25 236.25 179.25
2587131 1 152.25 239.25 179.25
2587132 1 155.25 239.25 179.25
2587257 1 170.25 242.25 179.25
2587733 1 158.25 254.25 179.25
2601528 1 143.25 239.25 182.25
2614968 1 143.25 215.25 185.25
2615571 1 152.25 230.25 185.25
2688048 1 143.25 242.25 200.25
2716849 1 146.25 242.25 206.25
