ITEM: TIMESTEP
88000
ITEM: NUMBER OF ATOMS
81
ITEM: BOX BOUNDS pp pp pp
0 360
0 360
0 360
ITEM: ATOMS id type x y z c_myKE c_myPE
2367283 1 125.867 141.741 130.263 0.0199513 -7.41944
2381563 1 125.476 138.784 133.602 0.074105 -6.8432
653685 1 129.271 141.173 133.481 0.264919 -7.16369
2468679 1 111.178 155.804 152.808 0.084519 -6.43539
2455599 1 111.443 192.981 152.028 0.202709 -6.49728
2612219 1 180.42 145.005 182.987 0.493825 -6.94896
2626854 1 158.05 151.279 189.767 0.139417 -7.4558
2698253 1 156.234 133.586 203.848 0.181146 -8.07114
955974 1 157.888 135.24 202.406 0.130556 -7.6631
2683974 1 161.106 138.627 202.098 0.00923083 -7.56171
2698731 1 149.644 146.312 203.793 0.061867 -7.65946
2712655 1 162.671 133.936 206.695 0.172269 -7.4432
2712892 1 153.074 139.953 207.078 0.0749545 -8.45911
2713012 1 152.915 143.235 206.914 0.132648 -8.80326
2698493 1 154.655 141.605 205.525 0.344328 -7.7286
2713131 1 149.884 146.423 206.823 0.0212408 -8.28247
2727292 1 153.075 140.109 210.11 0.33183 -8.64475
2727293 1 156.196 139.969 210.181 0.0266144 -8.22921
2727531 1 148.428 148.157 208.728 0.00954245 -7.4248
2725496 1 165.25 91.9371 211.815 0.0217803 -6.76963
1013341 1 178.219 130.675 211.908 0.248229 -6.57941
1013933 1 151.656 144.939 211.654 0.117391 -8.10681
2756092 1 152.883 140.116 216.521 0.169948 -8.21281
2756211 1 149.826 143.361 216.275 0.0781165 -7.96957
2770491 1 149.792 139.972 219.55 0.361149 -7.91777
2772171 1 149.674 186.656 221.437 0.189896 -7.22893
1058810 1 148.223 191.044 222.851 0.073934 -7.60715
1059638 1 109.949 212.188 221.325 0.11771 -6.15704
2786810 1 148.112 191.222 226.101 0.00360748 -7.55856
2916162 1 124.015 184.864 253.547 0.0219484 -6.44103
2973770 1 148.185 184.681 262.955 0.0524362 -6.18128
2974728 1 141.878 210.171 266.127 0.289556 -6.79573
2974847 1 138.827 213.489 266.363 0.354282 -6.64973
3043020 1 180.131 111.54 280.032 0.0227024 -7.17964
3043139 1 176.838 114.502 280.512 0.0822617 -6.62311
3043487 1 138.768 126.266 282.213 0.207224 -7.44099
1317168 1 140.01 167.5 283.199 0.0843256 -6.43871
3116445 1 132.389 151.385 297.966 0.199902 -6.63185
3116325 1 132.528 148.222 301.28 0.139849 -7.36351
3145126 1 135.784 148.382 304.51 0.337733 -7.21224
3172736 1 165.554 116.637 311.172 0.345287 -6.75807
3172855 1 162.871 119.899 310.854 0.468381 -6.77634
667964 1 127.815 136.718 134.979 0.217547 -6.66569
942173 1 154.353 151.28 192.622 0.232918 -7.45451
927775 1 157.33 151.339 192.267 0.0975525 -7.18509
942052 1 154.543 148.015 195.647 0.208534 -6.62248
927894 1 157.436 151.124 195.658 0.0106505 -6.57912
970612 1 151.332 141.819 202.029 0.109155 -7.82443
957179 1 175.442 167.099 200.892 0.0765212 -6.7989
2683973 1 156.345 137.054 203.865 0.174263 -8.15795
985132 1 151.319 144.825 205.429 0.0142333 -8.38536
999055 1 161.048 131.81 208.581 0.0298073 -6.93034
2712893 1 157.835 138.242 208.303 0.210518 -7.94393
999412 1 151.437 141.537 208.608 0.0910437 -8.73153
999532 1 151.368 144.871 208.416 0.219558 -8.60086
985483 1 121.285 154.095 207.313 0.0923726 -6.90632
986928 1 140.436 192.394 207.158 0.284349 -6.41208
1013693 1 154.547 138.267 211.394 0.0534528 -7.23127
1013812 1 151.465 141.743 211.696 0.24668 -8.81373
1013931 1 148.198 144.831 211.873 0.0849174 -7.63422
2713132 1 149.846 146.454 210.284 0.0159067 -8.48166
1027740 1 178.661 127.186 214.874 0.254866 -7.00359
1028212 1 151.421 141.681 214.93 0.0921161 -8.54392
1028213 1 154.539 141.671 214.764 0.34951 -8.27829
1028332 1 151.254 144.95 214.887 0.336427 -8.4242
1042492 1 151.456 138.192 217.723 0.149741 -7.4414
1042611 1 148.291 141.81 217.953 0.18446 -7.99457
1042612 1 151.26 141.789 217.984 0.104133 -8.59036
1057011 1 147.779 141.773 221.006 0.078396 -7.33617
2772409 1 146.659 189.483 221.309 0.0972519 -7.12254
2800968 1 143.554 186.332 224.415 0.144446 -7.28263
1073331 1 149.797 192.8 224.404 0.250322 -6.60116
2829888 1 143.497 189.46 227.812 0.219336 -6.76259
1275649 1 143.449 211.808 271.164 0.579825 -6.98598
1302182 1 185.038 153.424 277.078 0.149187 -6.4418
1329541 1 182.066 113.134 281.957 0.0178083 -6.46045
1315367 1 137.019 121.346 280.708 0.32013 -6.99189
1315488 1 140.342 124.321 280.261 0.159536 -7.72533
1329887 1 136.846 124.35 283.704 0.312442 -7.73153
1402725 1 128.868 147.944 297.972 0.0816814 -7.71748
1388566 1 134.132 153.248 296.347 0.0315134 -6.8022
