ITEM: TIMESTEP
90000
ITEM: NUMBER OF ATOMS
65
ITEM: BOX BOUNDS pp pp pp
0 360
0 360
0 360
ITEM: ATOMS id type x y z
355870 1 207.75 255.75 72.75
484263 1 186.75 225.75 99.75
513064 1 189.75 225.75 105.75
540415 1 162.75 189.75 111.75
569095 1 162.75 186.75 117.75
668957 1 228.75 162.75 138.75
769248 1 141.75 150.75 159.75
784619 1 174.75 174.75 162.75
784630 1 207.75 174.75 162.75
785105 1 192.75 186.75 162.75
798191 1 210.75 153.75 165.75
798913 1 216.75 171.75 165.75
799505 1 192.75 186.75 165.75
813782 1 183.75 183.75 168.75
827594 1 219.75 168.75 171.75
828541 1 180.75 192.75 171.75
856262 1 183.75 165.75 177.75
857214 1 159.75 189.75 177.75
857463 1 186.75 195.75 177.75
871855 1 162.75 195.75 180.75
871861 1 180.75 195.75 180.75
900063 1 186.75 180.75 186.75
958869 1 204.75 210.75 198.75
1002187 1 198.75 213.75 207.75
1058946 1 195.75 192.75 219.75
1087872 1 213.75 195.75 225.75
1118346 1 195.75 237.75 231.75
1132147 1 198.75 222.75 234.75
1132267 1 198.75 225.75 234.75
1132268 1 201.75 225.75 234.75
1147023 1 186.75 234.75 237.75
1205103 1 186.75 246.75 249.75
1205458 1 171.75 255.75 249.75
1234019 1 174.75 249.75 255.75
1234020 1 177.75 249.75 255.75
1234376 1 165.75 258.75 255.75
1248059 1 174.75 240.75 258.75
2097910 1 209.25 248.25 77.25
2226543 1 188.25 224.25 104.25
2226664 1 191.25 227.25 104.25
2424912 1 215.25 143.25 146.25
2426819 1 176.25 191.25 146.25
2426939 1 176.25 194.25 146.25
2454193 1 218.25 155.25 152.25
2455611 1 152.25 191.25 152.25
2469656 1 167.25 182.25 155.25
2498462 1 185.25 182.25 161.25
2498822 1 185.25 191.25 161.25
2526549 1 206.25 164.25 167.25
2526793 1 218.25 170.25 167.25
2541192 1 215.25 170.25 170.25
2555354 1 221.25 164.25 173.25
2555474 1 221.25 167.25 173.25
2571063 1 188.25 197.25 176.25
2600339 1 176.25 209.25 182.25
2613893 1 158.25 188.25 185.25
2614022 1 185.25 191.25 185.25
2614263 1 188.25 197.25 185.25
2628424 1 191.25 191.25 188.25
2685415 1 164.25 176.25 200.25
2715664 1 191.25 212.25 206.25
2728733 1 158.25 179.25 209.25
2757909 1 206.25 188.25 215.25
2875024 1 191.25 236.25 239.25
2962018 1 173.25 251.25 257.25
