ITEM: TIMESTEP
90000
ITEM: NUMBER OF ATOMS
155
ITEM: BOX BOUNDS pp pp pp
0 360
0 360
0 360
ITEM: ATOMS id type x y z
482229 1 204.75 174.75 99.75
482230 1 207.75 174.75 99.75
482597 1 228.75 183.75 99.75
496390 1 207.75 168.75 102.75
496510 1 207.75 171.75 102.75
496628 1 201.75 174.75 102.75
496630 1 207.75 174.75 102.75
496751 1 210.75 177.75 102.75
496754 1 219.75 177.75 102.75
496758 1 231.75 177.75 102.75
496873 1 216.75 180.75 102.75
496875 1 222.75 180.75 102.75
496877 1 228.75 180.75 102.75
496995 1 222.75 183.75 102.75
496996 1 225.75 183.75 102.75
510671 1 210.75 165.75 105.75
510791 1 210.75 168.75 105.75
510910 1 207.75 171.75 105.75
510911 1 210.75 171.75 105.75
511030 1 207.75 174.75 105.75
511031 1 210.75 174.75 105.75
511037 1 228.75 174.75 105.75
511151 1 210.75 177.75 105.75
511152 1 213.75 177.75 105.75
511153 1 216.75 177.75 105.75
511154 1 219.75 177.75 105.75
511155 1 222.75 177.75 105.75
511156 1 225.75 177.75 105.75
511272 1 213.75 180.75 105.75
511274 1 219.75 180.75 105.75
511275 1 222.75 180.75 105.75
512475 1 222.75 210.75 105.75
524831 1 210.75 159.75 108.75
524832 1 213.75 159.75 108.75
524949 1 204.75 162.75 108.75
524952 1 213.75 162.75 108.75
524953 1 216.75 162.75 108.75
525070 1 207.75 165.75 108.75
525071 1 210.75 165.75 108.75
525072 1 213.75 165.75 108.75
525075 1 222.75 165.75 108.75
525191 1 210.75 168.75 108.75
525193 1 216.75 168.75 108.75
525194 1 219.75 168.75 108.75
525196 1 225.75 168.75 108.75
525197 1 228.75 168.75 108.75
525314 1 219.75 171.75 108.75
525315 1 222.75 171.75 108.75
525316 1 225.75 171.75 108.75
525317 1 228.75 171.75 108.75
525432 1 213.75 174.75 108.75
525433 1 216.75 174.75 108.75
525434 1 219.75 174.75 108.75
525436 1 225.75 174.75 108.75
525437 1 228.75 174.75 108.75
526876 1 225.75 210.75 108.75
538739 1 174.75 147.75 111.75
539230 1 207.75 159.75 111.75
539355 1 222.75 162.75 111.75
539474 1 219.75 165.75 111.75
539476 1 225.75 165.75 111.75
539598 1 231.75 168.75 111.75
539599 1 234.75 168.75 111.75
539832 1 213.75 174.75 111.75
581477 1 228.75 135.75 120.75
626952 1 213.75 192.75 129.75
640737 1 168.75 177.75 132.75
699069 1 204.75 195.75 144.75
699189 1 204.75 198.75 144.75
713468 1 201.75 195.75 147.75
713586 1 195.75 198.75 147.75
713589 1 204.75 198.75 147.75
727748 1 201.75 192.75 150.75
727868 1 201.75 195.75 150.75
727986 1 195.75 198.75 150.75
728109 1 204.75 201.75 150.75
728230 1 207.75 204.75 150.75
739740 1 177.75 132.75 153.75
742510 1 207.75 201.75 153.75
742629 1 204.75 204.75 153.75
754152 1 213.75 132.75 156.75
756668 1 201.75 195.75 156.75
826869 1 204.75 150.75 171.75
2209989 1 206.25 170.25 101.25
2210109 1 206.25 173.25 101.25
2210230 1 209.25 176.25 101.25
2210347 1 200.25 179.25 101.25
2210473 1 218.25 182.25 101.25
2210474 1 221.25 182.25 101.25
2210477 1 230.25 182.25 101.25
2224269 1 206.25 167.25 104.25
2224270 1 209.25 167.25 104.25
2224388 1 203.25 170.25 104.25
2224392 1 215.25 170.25 104.25
2224630 1 209.25 176.25 104.25
2224751 1 212.25 179.25 104.25
2224756 1 227.25 179.25 104.25
2224873 1 218.25 182.25 104.25
2224875 1 224.25 182.25 104.25
2238310 1 209.25 158.25 107.25
2238430 1 209.25 161.25 107.25
2238548 1 203.25 164.25 107.25
2238549 1 206.25 164.25 107.25
2238667 1 200.25 167.25 107.25
2238668 1 203.25 167.25 107.25
2238669 1 206.25 167.25 107.25
2238672 1 215.25 167.25 107.25
2238791 1 212.25 170.25 107.25
2238792 1 215.25 170.25 107.25
2238798 1 233.25 170.25 107.25
2238915 1 224.25 173.25 107.25
2239031 1 212.25 176.25 107.25
2239032 1 215.25 176.25 107.25
2239033 1 218.25 176.25 107.25
2239034 1 221.25 176.25 107.25
2239035 1 224.25 176.25 107.25
2252709 1 206.25 158.25 110.25
2252832 1 215.25 161.25 110.25
2252833 1 218.25 161.25 110.25
2252834 1 221.25 161.25 110.25
2252950 1 209.25 164.25 110.25
2252953 1 218.25 164.25 110.25
2252955 1 224.25 164.25 110.25
2253072 1 215.25 167.25 110.25
2253073 1 218.25 167.25 110.25
2253075 1 224.25 167.25 110.25
2253076 1 227.25 167.25 110.25
2253194 1 221.25 170.25 110.25
2253197 1 230.25 170.25 110.25
2253199 1 236.25 170.25 110.25
2253554 1 221.25 179.25 110.25
2266618 1 173.25 146.25 113.25
2266738 1 173.25 149.25 113.25
2266990 1 209.25 155.25 113.25
2267478 1 233.25 167.25 113.25
2309097 1 170.25 128.25 122.25
2309476 1 227.25 137.25 122.25
2312575 1 164.25 215.25 122.25
2340551 1 212.25 194.25 128.25
2412669 1 206.25 197.25 143.25
2427068 1 203.25 197.25 146.25
2427308 1 203.25 203.25 146.25
2441465 1 194.25 197.25 149.25
2441468 1 203.25 197.25 149.25
2441470 1 209.25 197.25 149.25
2441587 1 200.25 200.25 149.25
2441588 1 203.25 200.25 149.25
2441709 1 206.25 203.25 149.25
2455867 1 200.25 197.25 152.25
2455987 1 200.25 200.25 152.25
2455988 1 203.25 200.25 152.25
2456108 1 203.25 203.25 152.25
2470388 1 203.25 200.25 155.25
2482031 1 212.25 131.25 158.25
2541287 1 140.25 173.25 170.25
