ITEM: TIMESTEP
97000
ITEM: NUMBER OF ATOMS
50
ITEM: BOX BOUNDS pp pp pp
0 360
0 360
0 360
ITEM: ATOMS id type x y z
740333 1 156.75 147.75 153.75
740453 1 156.75 150.75 153.75
796604 1 129.75 114.75 165.75
842557 1 108.75 183.75 174.75
854921 1 120.75 132.75 177.75
855042 1 123.75 135.75 177.75
869322 1 123.75 132.75 180.75
912523 1 126.75 132.75 189.75
927043 1 126.75 135.75 192.75
1001221 1 180.75 189.75 207.75
1015622 1 183.75 189.75 210.75
1060992 1 213.75 243.75 219.75
1102629 1 204.75 204.75 228.75
1102748 1 201.75 207.75 228.75
1102750 1 207.75 207.75 228.75
1132633 1 216.75 234.75 234.75
1176422 1 183.75 249.75 243.75
1205246 1 255.75 249.75 249.75
1334957 1 228.75 252.75 276.75
1364257 1 288.75 264.75 282.75
1479923 1 246.75 276.75 306.75
2426319 1 116.25 179.25 146.25
2453932 1 155.25 149.25 152.25
2482731 1 152.25 149.25 158.25
2524483 1 128.25 113.25 167.25
2539494 1 161.25 128.25 170.25
2568521 1 122.25 134.25 176.25
2568522 1 125.25 134.25 176.25
2643902 1 185.25 218.25 191.25
2714452 1 155.25 182.25 206.25
2716264 1 191.25 227.25 206.25
2759093 1 158.25 218.25 215.25
2773373 1 158.25 215.25 218.25
2787777 1 170.25 215.25 221.25
2802178 1 173.25 215.25 224.25
2815137 1 170.25 179.25 227.25
2816348 1 203.25 209.25 227.25
2816349 1 206.25 209.25 227.25
2875732 1 155.25 254.25 239.25
2890021 1 182.25 251.25 242.25
2919051 1 152.25 257.25 248.25
2934312 1 215.25 278.25 251.25
2948713 1 218.25 278.25 254.25
3047843 1 248.25 236.25 275.25
3064630 1 209.25 296.25 278.25
3064879 1 236.25 302.25 278.25
3134480 1 239.25 242.25 293.25
3163873 1 218.25 257.25 299.25
3165318 1 233.25 293.25 299.25
3165432 1 215.25 296.25 299.25
