ITEM: TIMESTEP
95649
ITEM: NUMBER OF ATOMS
69
ITEM: BOX BOUNDS pp pp pp
0 360
0 360
0 360
ITEM: ATOMS id type x y z
610136 1 165.75 132.75 126.75
739491 1 150.75 126.75 153.75
768659 1 174.75 135.75 159.75
783058 1 171.75 135.75 162.75
783060 1 177.75 135.75 162.75
841150 1 207.75 147.75 174.75
884206 1 135.75 144.75 183.75
914685 1 132.75 186.75 189.75
954412 1 153.75 99.75 198.75
956092 1 153.75 141.75 198.75
970732 1 153.75 147.75 201.75
1100818 1 171.75 159.75 228.75
1114510 1 207.75 141.75 231.75
1201257 1 168.75 150.75 249.75
1215656 1 165.75 150.75 252.75
1215657 1 168.75 150.75 252.75
1357983 1 186.75 108.75 282.75
1358949 1 204.75 132.75 282.75
1372263 1 186.75 105.75 285.75
1372382 1 183.75 108.75 285.75
1388469 1 204.75 150.75 288.75
1401157 1 108.75 108.75 291.75
1443391 1 90.75 84.75 300.75
1447509 1 204.75 186.75 300.75
1447628 1 201.75 189.75 300.75
1459607 1 138.75 129.75 303.75
1474125 1 132.75 132.75 306.75
1474126 1 135.75 132.75 306.75
1516484 1 129.75 111.75 315.75
1516603 1 126.75 114.75 315.75
1520100 1 177.75 201.75 315.75
1520219 1 174.75 204.75 315.75
1531004 1 129.75 114.75 318.75
1532923 1 126.75 162.75 318.75
1560900 1 177.75 141.75 324.75
1646800 1 117.75 129.75 342.75
2455846 1 137.25 197.25 152.25
2482258 1 173.25 137.25 158.25
2496658 1 173.25 137.25 161.25
2496778 1 173.25 140.25 161.25
2510940 1 179.25 134.25 164.25
2585452 1 155.25 197.25 179.25
2667891 1 152.25 98.25 197.25
2668013 1 158.25 101.25 197.25
2683971 1 152.25 140.25 200.25
2684091 1 152.25 143.25 200.25
2684210 1 149.25 146.25 200.25
2825328 1 143.25 74.25 230.25
2828578 1 173.25 155.25 230.25
2842858 1 173.25 152.25 233.25
2854742 1 185.25 89.25 236.25
2886305 1 194.25 158.25 242.25
2929137 1 170.25 149.25 251.25
2943656 1 167.25 152.25 254.25
2986850 1 149.25 152.25 263.25
3072782 1 185.25 140.25 281.25
3073516 1 227.25 158.25 281.25
3085134 1 161.25 89.25 284.25
3085982 1 185.25 110.25 284.25
3129036 1 107.25 107.25 293.25
3187486 1 137.25 128.25 305.25
3187606 1 137.25 131.25 305.25
3201885 1 134.25 128.25 308.25
3202005 1 134.25 131.25 308.25
3202006 1 137.25 131.25 308.25
3215926 1 137.25 119.25 311.25
3275575 1 164.25 170.25 323.25
3347936 1 167.25 179.25 338.25
3433119 1 116.25 149.25 356.25
