ITEM: TIMESTEP
89250
ITEM: NUMBER OF ATOMS
71
ITEM: BOX BOUNDS pp pp pp
0 360
0 360
0 360
ITEM: ATOMS id type x y z c_myKE c_myPE
2310068 1 205.727 149.542 117.623 0 -6.25193
2495717 1 234.421 108.052 159.099 0 -6.25313
2512844 1 127.261 181.439 164.198 0 -6.26362
2641737 1 168.784 164.257 190.902 0 -6.26546
2640666 1 197.429 135.534 192.91 0 -6.25211
942525 1 132.519 164.257 194.161 0 -7.0577
957046 1 132.556 160.995 197.463 0 -7.16841
942526 1 133.631 159.128 199.388 0 -7.60695
2670647 1 138.594 167.494 200.881 0 -7.2417
971327 1 132.348 161.259 203.446 0 -7.4511
2699328 1 138.756 163.86 203.739 0 -7.84301
2699449 1 143.367 165.577 205.658 0 -8.49218
2713848 1 141.794 167.243 207.093 0 -8.53578
2700515 1 100.52 196.112 205.65 0 -6.25539
2713739 1 175.147 162.279 208.841 0 -6.26697
985850 1 146.398 165.562 208.766 0 -8.52503
2728247 1 138.697 167.318 210.233 0 -8.48775
2713849 1 141.785 167.245 210.217 0 -8.8178
2728367 1 138.653 170.487 210.223 0 -8.55965
1000130 1 145.098 160.95 213.354 0 -7.93251
2742529 1 144.975 164.118 213.393 0 -8.71372
1000251 1 149.49 165.577 212.024 0 -8.37654
2742649 1 144.836 167.276 213.448 0 -8.49479
1014768 1 138.679 170.46 213.378 0 -8.65486
2742768 1 141.819 170.335 213.469 0 -8.47666
2742887 1 138.667 173.675 213.38 0 -7.86162
2742531 1 149.642 162.368 215 0 -7.32737
2757166 1 138.683 170.495 216.534 0 -7.87366
2813568 1 139.976 136.678 229.156 0 -6.83648
1114964 1 125.843 154.486 237.757 0 -6.6438
2918678 1 110.167 253.368 251.717 0 -6.54251
1232560 1 114.386 213.456 261.204 0 -6.4727
2956732 1 152.751 117.616 263.081 0 -6.25536
3092571 1 151.486 282.248 291.801 0 -6.25415
683198 1 108.459 157.49 140.286 0 -6.26123
726881 1 117.866 168.655 150.788 0 -8.05625
2454641 1 117.866 166.759 152.684 0 -8.05451
769963 1 121.55 170.441 152.681 0 -8.05726
754386 1 195.823 137.136 156.241 0 -6.25995
2483560 1 116.145 172.163 156.191 0 -7.6604
957048 1 138.564 163.791 198.076 0 -7.31019
2699208 1 140.263 162.366 205.489 0 -7.97018
971449 1 140.225 165.592 205.441 0 -8.23464
2713729 1 143.368 165.707 208.652 0 -8.49852
1000367 1 137.204 168.836 208.516 0 -7.82071
1014649 1 143.392 165.672 211.787 0 -8.78301
2728248 1 140.225 168.865 211.817 0 -8.79073
1014769 1 143.327 168.804 211.805 0 -8.48242
1014887 1 136.97 172.002 211.894 0 -7.93442
1029050 1 146.434 165.711 215.047 0 -8.29423
1043330 1 146.694 162.572 218.079 0 -7.69916
1085689 1 141.75 138.443 227.574 0 -6.54038
1087114 1 93.7472 176.62 227.647 0 -6.25473
1100684 1 127.541 156.185 236.327 0 -7.31505
2857726 1 132.058 160.703 237.173 0 -6.64093
2887370 1 144.812 186.212 249.949 0 -6.2523
1190798 1 108.588 255.137 249.948 0 -6.8283
1233049 1 143.517 227.722 259.569 0 -7.37342
1233169 1 141.658 229.58 259.569 0 -7.37372
1247328 1 140.429 226.494 262.655 0 -6.28295
1247449 1 143.516 229.581 261.428 0 -7.37223
2974840 1 116 211.66 265.988 0 -7.16763
1261359 1 112.949 214.869 265.864 0 -7.21932
1275639 1 112.912 211.73 268.965 0 -6.98873
1290161 1 116.165 214.958 269.302 0 -6.75742
1377293 1 156.247 234.102 291.488 0 -7.36142
1363012 1 153.163 237.186 290.256 0 -6.30279
1377292 1 154.396 234.1 293.337 0 -7.36102
3119813 1 157.479 237.183 294.572 0 -6.3065
1403572 1 153.101 167.067 299.765 0 -6.25344
1464767 1 137.134 262.751 312.532 0 -6.25507
