ITEM: TIMESTEP
96000
ITEM: NUMBER OF ATOMS
60
ITEM: BOX BOUNDS pp pp pp
0 360
0 360
0 360
ITEM: ATOMS id type x y z
725570 1 147.75 138.75 150.75
769374 1 159.75 153.75 159.75
885767 1 138.75 183.75 183.75
975271 1 90.75 261.75 201.75
989199 1 114.75 249.75 204.75
1001444 1 129.75 195.75 207.75
1001566 1 135.75 198.75 207.75
1017156 1 105.75 228.75 210.75
1017878 1 111.75 246.75 210.75
1045363 1 126.75 213.75 216.75
1045955 1 102.75 228.75 216.75
1047029 1 84.75 255.75 216.75
1061075 1 102.75 246.75 219.75
1188394 1 99.75 189.75 246.75
1190435 1 102.75 240.75 246.75
1264498 1 171.75 291.75 261.75
1276362 1 123.75 228.75 264.75
1277927 1 138.75 267.75 264.75
1277932 1 153.75 267.75 264.75
1278657 1 168.75 285.75 264.75
1278897 1 168.75 291.75 264.75
1292575 1 162.75 273.75 267.75
1306116 1 105.75 252.75 270.75
1322700 1 177.75 306.75 273.75
1446999 1 114.75 174.75 300.75
1447000 1 117.75 174.75 300.75
1447360 1 117.75 183.75 300.75
1532800 1 117.75 159.75 318.75
2411333 1 158.25 164.25 143.25
2483088 1 143.25 158.25 158.25
2497730 1 149.25 164.25 161.25
2613646 1 137.25 182.25 185.25
2613647 1 140.25 182.25 185.25
2702679 1 116.25 248.25 203.25
2714924 1 131.25 194.25 206.25
2731238 1 113.25 242.25 209.25
2731713 1 98.25 254.25 209.25
2745626 1 77.25 242.25 212.25
2759555 1 104.25 230.25 215.25
2760633 1 98.25 257.25 215.25
2802990 1 89.25 236.25 224.25
2817032 1 95.25 227.25 227.25
2817873 1 98.25 248.25 227.25
2874759 1 116.25 230.25 239.25
2902713 1 98.25 209.25 245.25
2917840 1 119.25 227.25 248.25
2932241 1 122.25 227.25 251.25
2962489 1 146.25 263.25 257.25
2975801 1 122.25 236.25 260.25
2990431 1 92.25 242.25 263.25
2991409 1 146.25 266.25 263.25
3004485 1 134.25 233.25 266.25
3006052 1 155.25 272.25 266.25
3006415 1 164.25 281.25 266.25
3006658 1 173.25 287.25 266.25
3020936 1 167.25 284.25 269.25
3032440 1 119.25 212.25 272.25
3092316 1 107.25 269.25 284.25
3232120 1 119.25 164.25 314.25
3274602 1 125.25 146.25 323.25
