ITEM: TIMESTEP
88231
ITEM: NUMBER OF ATOMS
85
ITEM: BOX BOUNDS pp pp pp
0 360
0 360
0 360
ITEM: ATOMS id type x y z
610620 1 177.75 144.75 126.75
625021 1 180.75 144.75 129.75
639657 1 168.75 150.75 132.75
653937 1 168.75 147.75 135.75
654056 1 165.75 150.75 135.75
668336 1 165.75 147.75 138.75
668455 1 162.75 150.75 138.75
756188 1 201.75 183.75 156.75
769249 1 144.75 150.75 159.75
770802 1 123.75 189.75 159.75
857954 1 219.75 207.75 177.75
858073 1 216.75 210.75 177.75
884934 1 159.75 162.75 183.75
913845 1 132.75 165.75 189.75
913846 1 135.75 165.75 189.75
915180 1 177.75 198.75 189.75
928246 1 135.75 165.75 192.75
928366 1 135.75 168.75 192.75
929342 1 183.75 192.75 192.75
971593 1 216.75 168.75 201.75
986804 1 129.75 189.75 204.75
986925 1 132.75 192.75 204.75
987167 1 138.75 198.75 204.75
1000251 1 150.75 165.75 207.75
1001082 1 123.75 186.75 207.75
1001203 1 126.75 189.75 207.75
1001323 1 126.75 192.75 207.75
1001324 1 129.75 192.75 207.75
1001445 1 132.75 195.75 207.75
1001566 1 135.75 198.75 207.75
1015602 1 123.75 189.75 210.75
1015724 1 129.75 192.75 210.75
1028677 1 108.75 156.75 213.75
1028796 1 105.75 159.75 213.75
1030013 1 156.75 189.75 213.75
1044412 1 153.75 189.75 216.75
1060498 1 171.75 231.75 219.75
1074778 1 171.75 228.75 222.75
1074897 1 168.75 231.75 222.75
1232810 1 147.75 219.75 255.75
1232931 1 150.75 222.75 255.75
2310651 1 152.25 167.25 122.25
2325524 1 131.25 179.25 125.25
2367536 1 167.25 149.25 134.25
2367656 1 167.25 152.25 134.25
2381935 1 164.25 149.25 137.25
2381936 1 167.25 149.25 137.25
2382055 1 164.25 152.25 137.25
2410728 1 143.25 149.25 143.25
2410847 1 140.25 152.25 143.25
2425248 1 143.25 152.25 146.25
2425367 1 140.25 155.25 146.25
2426444 1 131.25 182.25 146.25
2484402 1 125.25 191.25 158.25
2497249 1 146.25 152.25 161.25
2498922 1 125.25 194.25 161.25
2543911 1 92.25 239.25 170.25
2571672 1 215.25 212.25 176.25
2571673 1 218.25 212.25 176.25
2571674 1 221.25 212.25 176.25
2585953 1 218.25 209.25 179.25
2585954 1 221.25 209.25 179.25
2586074 1 221.25 212.25 179.25
2598673 1 218.25 167.25 182.25
2601281 1 122.25 233.25 182.25
2627445 1 134.25 167.25 188.25
2627710 1 209.25 173.25 188.25
2641724 1 131.25 164.25 191.25
2641725 1 134.25 164.25 191.25
2642821 1 182.25 191.25 191.25
2643180 1 179.25 200.25 191.25
2656246 1 137.25 167.25 194.25
2714803 1 128.25 191.25 206.25
2714804 1 131.25 191.25 206.25
2714924 1 131.25 194.25 206.25
2714925 1 134.25 194.25 206.25
2715045 1 134.25 197.25 206.25
2715046 1 137.25 197.25 206.25
2728131 1 152.25 164.25 209.25
2729081 1 122.25 188.25 209.25
2729082 1 125.25 188.25 209.25
2729202 1 125.25 191.25 209.25
2729324 1 131.25 194.25 209.25
2730308 1 203.25 218.25 209.25
2803495 1 164.25 248.25 224.25
