ITEM: TIMESTEP
95000
ITEM: NUMBER OF ATOMS
55
ITEM: BOX BOUNDS pp pp pp
0 360
0 360
0 360
ITEM: ATOMS id type x y z
596688 1 141.75 156.75 123.75
610607 1 138.75 144.75 126.75
639527 1 138.75 147.75 132.75
654651 1 150.75 165.75 135.75
688598 1 111.75 294.75 141.75
727728 1 141.75 192.75 150.75
745231 1 90.75 270.75 153.75
746919 1 114.75 312.75 153.75
756526 1 135.75 192.75 156.75
760112 1 93.75 282.75 156.75
762037 1 108.75 330.75 156.75
769972 1 153.75 168.75 159.75
769973 1 156.75 168.75 159.75
771527 1 138.75 207.75 159.75
772245 1 132.75 225.75 159.75
772485 1 132.75 231.75 159.75
775479 1 114.75 306.75 159.75
786885 1 132.75 231.75 162.75
789512 1 93.75 297.75 162.75
789989 1 84.75 309.75 162.75
803324 1 129.75 282.75 165.75
813176 1 165.75 168.75 168.75
819038 1 111.75 315.75 168.75
834154 1 99.75 333.75 171.75
846530 1 147.75 282.75 174.75
847112 1 93.75 297.75 174.75
876750 1 87.75 318.75 180.75
904719 1 114.75 297.75 186.75
919843 1 126.75 315.75 189.75
948864 1 69.75 321.75 195.75
2324569 1 146.25 155.25 125.25
2338488 1 143.25 143.25 128.25
2339085 1 134.25 158.25 128.25
2339329 1 146.25 164.25 128.25
2367525 1 134.25 149.25 134.25
2367887 1 140.25 158.25 134.25
2431483 1 128.25 308.25 146.25
2468809 1 146.25 161.25 155.25
2469413 1 158.25 176.25 155.25
2473834 1 101.25 287.25 155.25
2474678 1 113.25 308.25 155.25
2499646 1 137.25 212.25 161.25
2499648 1 143.25 212.25 161.25
2512252 1 155.25 167.25 164.25
2532398 1 113.25 311.25 167.25
2532758 1 113.25 320.25 167.25
2541050 1 149.25 167.25 170.25
2547395 1 104.25 326.25 170.25
2575714 1 101.25 314.25 176.25
2590591 1 92.25 326.25 179.25
2604275 1 104.25 308.25 182.25
2617012 1 155.25 266.25 185.25
2659728 1 143.25 254.25 194.25
2662220 1 59.25 317.25 194.25
2676503 1 68.25 314.25 197.25
