ITEM: TIMESTEP
91518
ITEM: NUMBER OF ATOMS
108
ITEM: BOX BOUNDS pp pp pp
0 360
0 360
0 360
ITEM: ATOMS id type x y z
684414 1 159.75 189.75 141.75
697009 1 144.75 144.75 144.75
699174 1 159.75 198.75 144.75
702556 1 225.75 282.75 144.75
712847 1 138.75 180.75 147.75
717080 1 237.75 285.75 147.75
717322 1 243.75 291.75 147.75
731721 1 240.75 291.75 150.75
741653 1 156.75 180.75 153.75
745640 1 237.75 279.75 153.75
755331 1 150.75 162.75 156.75
756292 1 153.75 186.75 156.75
756414 1 159.75 189.75 156.75
756772 1 153.75 198.75 156.75
756777 1 168.75 198.75 156.75
770693 1 156.75 186.75 159.75
770809 1 144.75 189.75 159.75
771168 1 141.75 198.75 159.75
771291 1 150.75 201.75 159.75
771529 1 144.75 207.75 159.75
771537 1 168.75 207.75 159.75
773229 1 204.75 249.75 159.75
774920 1 237.75 291.75 159.75
784970 1 147.75 183.75 162.75
785329 1 144.75 192.75 162.75
785449 1 144.75 195.75 162.75
785572 1 153.75 198.75 162.75
785696 1 165.75 201.75 162.75
798891 1 150.75 171.75 165.75
799728 1 141.75 192.75 165.75
799729 1 144.75 192.75 165.75
799732 1 153.75 192.75 165.75
800091 1 150.75 201.75 165.75
802509 1 204.75 261.75 165.75
813291 1 150.75 171.75 168.75
813647 1 138.75 180.75 168.75
813649 1 144.75 180.75 168.75
813650 1 147.75 180.75 168.75
813888 1 141.75 186.75 168.75
813889 1 144.75 186.75 168.75
814368 1 141.75 198.75 168.75
828293 1 156.75 186.75 171.75
828768 1 141.75 198.75 171.75
842448 1 141.75 180.75 174.75
842568 1 141.75 183.75 174.75
842809 1 144.75 189.75 174.75
857090 1 147.75 186.75 177.75
859755 1 222.75 252.75 177.75
871129 1 144.75 177.75 180.75
871488 1 141.75 186.75 180.75
871727 1 138.75 192.75 180.75
872802 1 123.75 219.75 180.75
884809 1 144.75 159.75 183.75
885169 1 144.75 168.75 183.75
900282 1 123.75 186.75 186.75
914088 1 141.75 171.75 189.75
986559 1 114.75 183.75 204.75
987037 1 108.75 195.75 204.75
1015362 1 123.75 183.75 210.75
1015482 1 123.75 186.75 210.75
2441092 1 155.25 188.25 149.25
2441333 1 158.25 194.25 149.25
2443994 1 221.25 260.25 149.25
2459601 1 242.25 290.25 152.25
2472193 1 218.25 245.25 155.25
2472430 1 209.25 251.25 155.25
2483931 1 152.25 179.25 158.25
2484166 1 137.25 185.25 158.25
2484289 1 146.25 188.25 158.25
2484528 1 143.25 194.25 158.25
2486831 1 212.25 251.25 158.25
2498806 1 137.25 191.25 161.25
2511649 1 146.25 152.25 164.25
2512611 1 152.25 176.25 164.25
2513088 1 143.25 188.25 164.25
2513089 1 146.25 188.25 164.25
2513332 1 155.25 194.25 164.25
2513448 1 143.25 197.25 164.25
2527128 1 143.25 179.25 167.25
2527129 1 146.25 179.25 167.25
2527248 1 143.25 182.25 167.25
2527498 1 173.25 188.25 167.25
2530281 1 242.25 257.25 167.25
2530510 1 209.25 263.25 167.25
2541055 1 164.25 167.25 170.25
2541528 1 143.25 179.25 170.25
2541648 1 143.25 182.25 170.25
2541650 1 149.25 182.25 170.25
2541770 1 149.25 185.25 170.25
2541890 1 149.25 188.25 170.25
2555683 1 128.25 173.25 173.25
2556050 1 149.25 182.25 173.25
2556524 1 131.25 194.25 173.25
2556530 1 149.25 194.25 173.25
2557855 1 164.25 227.25 173.25
2559195 1 224.25 260.25 173.25
2584728 1 143.25 179.25 179.25
2585327 1 140.25 194.25 179.25
2587637 1 230.25 251.25 179.25
2599364 1 131.25 185.25 182.25
2613646 1 137.25 182.25 185.25
2613887 1 140.25 188.25 185.25
2615208 1 143.25 221.25 185.25
2627924 1 131.25 179.25 188.25
2656845 1 134.25 182.25 194.25
2671484 1 131.25 188.25 197.25
2715284 1 131.25 203.25 206.25
2743841 1 122.25 197.25 212.25
