ITEM: TIMESTEP
84000
ITEM: NUMBER OF ATOMS
91
ITEM: BOX BOUNDS pp pp pp
0 360
0 360
0 360
ITEM: ATOMS id type x y z c_myKE c_myPE
2294459 1 175.296 117.753 116.716 0.0362617 -6.34745
2324561 1 117.902 154.453 122.902 0.125738 -6.82985
2409433 1 219.88 111.294 139.811 0.164744 -7.1075
2409628 1 78.1082 119.624 140.133 0.0365844 -6.10178
2437636 1 229.467 95.5865 146.29 0.368868 -6.55685
2452156 1 229.092 98.4876 149.485 0.0838299 -7.72109
741152 1 84.2744 170.845 149.84 0.0989717 -7.22249
2466676 1 229.259 101.926 152.505 0.386378 -8.21159
2483310 1 87.8067 167.664 153.129 0.149065 -7.2898
2483551 1 84.359 171.013 152.778 0.0357032 -7.64646
2481075 1 226.032 101.794 156.101 0.159907 -7.27743
2483312 1 84.246 167.512 155.999 0.0191986 -7.61454
2469270 1 81.3523 170.442 156.046 0.202482 -6.86775
2482952 1 91.002 151.541 157.681 0.0944455 -7.61922
768422 1 185.039 129.633 160.893 0.079815 -7.46917
2511632 1 90.8246 151.467 160.671 0.29707 -8.20499
2482953 1 93.9457 151.587 160.753 0.152847 -7.73578
783753 1 90.6678 154.699 161.084 0.00390135 -8.27698
783182 1 184.798 132.455 164.188 0.0221792 -8.17314
2525913 1 93.8499 148.216 163.963 0.210383 -7.23764
2540672 1 88.9657 156.198 165.352 0.218543 -7.24879
2512942 1 57.1741 186.869 164.097 0.089617 -6.62566
2539503 1 184.702 126.059 167.208 0.224013 -8.12511
2525341 1 181.763 129.239 167.223 0.0124431 -8.34165
811621 1 184.984 129.218 167.235 0.126157 -8.74439
811740 1 185.13 132.335 167.434 0.189789 -8.51722
797464 1 188.186 132.395 167.273 0.281257 -8.34228
797463 1 187.931 129.162 170.584 0.068814 -8.1248
811743 1 188.233 132.422 170.428 0.0951346 -8.73498
2539744 1 191.291 132.359 170.439 0.12698 -8.52602
2539745 1 194.326 132.403 170.45 0.195315 -7.87537
2553785 1 194.172 123.085 174.036 0.147674 -7.10617
811504 1 191.353 125.98 173.748 0.0603191 -8.51204
826025 1 191.212 129.158 173.503 0.0615853 -8.46215
2554144 1 191.517 132.541 173.653 0.00653419 -7.83625
2568424 1 191.135 129.219 176.697 0.0892086 -8.24756
2597318 1 108.421 132.539 181.436 0.243406 -6.35933
2639699 1 175.028 110.076 192.851 0.11722 -6.67741
2656118 1 110.008 162.521 197.525 0.210887 -6.00273
2686121 1 120.486 194.367 202.979 0.0234116 -7.27222
2727520 1 114.553 146.429 210.052 0.337792 -8.39061
2727521 1 117.597 146.744 210.08 0.0914198 -7.85278
2727641 1 117.791 149.721 210.181 0.285938 -7.76301
2741921 1 117.356 146.49 213.339 0.298601 -7.45322
2742040 1 114.565 149.877 213.284 0.323223 -6.7285
523967 1 137.265 137.092 103.601 0.135625 -5.72383
625481 1 117.973 156.137 124.839 0.306552 -7.28854
2339309 1 82.7202 163.944 125.602 0.0825348 -5.94596
710353 1 218.201 112.914 144.522 0.134293 -7.37228
710474 1 221.239 115.893 144.557 0.585638 -7.24738
2469151 1 86.034 169.144 151.671 0.0368345 -7.40265
753076 1 227.882 100.128 154.293 0.243879 -7.83512
753196 1 227.561 103.453 154.387 0.0160397 -7.1875
740793 1 92.3918 159.411 153.003 0.172837 -7.12314
2497593 1 88.9944 162.658 153.015 0.156474 -7.87821
2483314 1 93.6043 167.22 154.177 0.22825 -7.96716
2482138 1 175.481 130.666 157.931 0.0869269 -6.49241
2467854 1 161.325 140.496 156.186 0.0578262 -5.81733
2497833 1 89.322 159.531 156.238 0.224313 -7.71919
769594 1 92.487 159.549 155.795 0.472927 -7.46946
2497952 1 86.368 162.628 156.939 0.0189687 -6.94713
2483313 1 89.0961 162.695 155.911 0.0455303 -7.6393
769715 1 92.3289 162.754 155.792 0.118272 -8.1577
2497233 1 93.7784 148.131 160.752 0.0504535 -8.13355
769235 1 95.6977 149.98 159.198 0.09026 -7.3279
2497471 1 89.193 156.425 159.401 0.136835 -7.69916
2539498 1 180.088 127.958 162.641 0.158193 -7.17076
2526034 1 95.4151 146.597 162.558 0.101224 -7.35591
2525914 1 93.799 151.246 164.034 0.279832 -8.03006
2526152 1 89.2857 152.83 162.583 0.203209 -8.09532
769473 1 89.0044 156.297 162.387 0.0605419 -7.70162
2539622 1 183.237 124.449 165.496 0.170621 -7.7833
2525219 1 180.135 127.457 165.772 0.14686 -8.04963
811859 1 180.188 130.743 165.723 0.14846 -7.85313
797342 1 183.322 130.736 165.656 0.0855554 -8.51762
783063 1 186.652 134.147 165.725 0.0427572 -7.94761
2539623 1 186.391 127.517 168.74 0.159382 -8.3633
2525342 1 186.543 130.717 168.928 0.254656 -8.64309
811863 1 188.29 135.467 170.318 0.192955 -7.86852
2539624 1 189.579 127.552 172.003 0.116126 -8.52136
811624 1 195.966 128.02 172.086 0.139842 -7.28683
2554024 1 189.579 130.813 171.94 0.00541021 -8.71426
854825 1 192.74 127.452 178.435 0.226413 -7.25417
883838 1 106.635 133.856 183.25 0.0281677 -6.40493
899463 1 188.224 164.189 188.222 0.331843 -6.55599
911834 1 224.647 109.76 191.556 0.19949 -6.63133
911819 1 173.093 111.638 191.573 0.0151283 -7.17594
926233 1 219.926 108.501 196.009 0.0428463 -6.61825
985122 1 119.062 144.682 205.105 0.395031 -7.42871
999642 1 119.377 148.173 208.475 0.1381 -7.98343
1027245 1 131.309 117.708 215.278 0.118989 -6.24112
