ITEM: TIMESTEP
87588
ITEM: NUMBER OF ATOMS
68
ITEM: BOX BOUNDS pp pp pp
0 360
0 360
0 360
ITEM: ATOMS id type x y z c_myKE c_myPE
2209373 1 157.847 154.661 95.3166 0 -6.25473
2281497 1 170.6 157.851 111.263 0 -6.25542
2325291 1 149.568 172.017 120.837 0 -6.79627
2339691 1 152.842 171.673 124.163 0 -6.75953
2399850 1 272.686 238.846 138.708 0 -6.25687
2428042 1 248.506 222.797 145.017 0 -6.30267
786197 1 229.762 211.913 155.664 0 -8.19237
2470998 1 231.406 217.246 155.829 0 -7.57996
2496795 1 224.824 136.768 159.117 0 -6.25524
2497409 1 272.688 154.672 158.984 0 -6.82525
2498582 1 189.881 180.243 157.752 0 -7.32823
771678 1 231.58 213.66 159.373 0 -8.11343
2499916 1 229.845 215.614 159.197 0 -8.17337
786916 1 229.288 235.723 159.064 0 -6.81266
2500637 1 232.564 238.963 158.973 0 -6.52451
2483823 1 186.568 180.134 160.89 0 -7.86762
2512740 1 183.482 183.271 161.142 0 -8.04611
799263 1 186.55 183.263 161.012 0 -7.85846
800235 1 226.328 210.081 160.89 0 -7.37638
2514074 1 222.867 213.224 161.108 0 -7.73739
2485394 1 226.059 216.913 161.001 0 -8.06186
772036 1 229.178 219.627 161.34 0 -7.49706
2528473 1 226.16 213.108 164.128 0 -7.59233
814996 1 229.119 216.614 164.338 0 -7.50358
816073 1 218.457 245.243 165.48 0 -6.25588
2512039 1 242.028 157.857 167.444 0 -6.2547
2512985 1 188.053 181.642 168.042 0 -7.54509
2526897 1 173.904 173.664 170.669 0 -7.29786
2557262 1 184.586 213.368 171.885 0 -6.2613
842217 1 170.507 176.993 173.709 0 -7.13421
2597005 1 256.718 122.754 181.43 0 -6.26217
869131 1 273.957 126.021 183.472 0 -7.03989
2597250 1 273.672 129.056 183.26 0 -6.87379
2629620 1 179.972 224.724 187.83 0 -6.59346
2684356 1 229.144 146.491 202.375 0 -6.54138
2685196 1 231.209 170.61 202.539 0 -6.25265
321900 1 178.584 124.357 58.6353 0 -6.25396
2325047 1 135.135 165.697 119.179 0 -6.52096
582887 1 135.263 169.796 117.766 0 -6.80945
611453 1 154.153 167.081 122.512 0 -6.62813
642930 1 274.281 234.053 130.728 0 -6.25967
728229 1 207.272 207.3 147.936 0 -6.26567
756332 1 280.65 188.148 154.318 0 -6.25452
2470875 1 227.906 211.897 153.774 0 -7.79462
769409 1 270.917 152.901 157.401 0 -6.54163
2484062 1 188.165 181.772 156.312 0 -7.36413
2485273 1 224.46 211.631 156.412 0 -7.63586
2485157 1 233.493 213.579 157.574 0 -8.01392
785103 1 187.95 184.946 159.224 0 -8.03533
2484304 1 192.272 186.714 159.387 0 -6.78999
784985 1 191.998 183.272 162.877 0 -7.92529
2527261 1 181.911 185.018 162.594 0 -7.32141
784744 1 190.186 185.326 162.908 0 -8.17112
828424 1 188.332 187.415 162.751 0 -7.91628
828064 1 189.877 181.699 166.175 0 -8.0964
799381 1 184.544 184.985 165.734 0 -7.01111
2527147 1 205.413 181.77 169.148 0 -6.29903
813297 1 172.198 172.189 172.237 0 -7.35801
2527017 1 172.392 175.283 172.187 0 -7.55946
831084 1 253.189 261.525 172.205 0 -6.25439
2570217 1 172.033 175.237 175.456 0 -7.4743
858292 1 151.114 218.106 178.603 0 -6.25506
869249 1 272.188 127.396 181.738 0 -7.06648
916141 1 181.796 226.582 189.352 0 -7.59929
930540 1 178.488 226.546 192.704 0 -6.54395
970757 1 230.727 144.721 204.145 0 -6.82521
983945 1 194.524 112.84 207.313 0 -6.25446
2755057 1 297.844 109.645 218.107 0 -6.25426
