ITEM: TIMESTEP
89000
ITEM: NUMBER OF ATOMS
71
ITEM: BOX BOUNDS pp pp pp
0 360
0 360
0 360
ITEM: ATOMS id type x y z
726530 1 147.75 162.75 150.75
739709 1 84.75 132.75 153.75
753997 1 108.75 129.75 156.75
754117 1 108.75 132.75 156.75
754714 1 99.75 147.75 156.75
769260 1 177.75 150.75 159.75
782692 1 153.75 126.75 162.75
783403 1 126.75 144.75 162.75
797327 1 138.75 132.75 165.75
811841 1 120.75 135.75 168.75
811847 1 138.75 135.75 168.75
811960 1 117.75 138.75 168.75
826369 1 144.75 138.75 171.75
826486 1 135.75 141.75 171.75
826488 1 141.75 141.75 171.75
826732 1 153.75 147.75 171.75
826839 1 114.75 150.75 171.75
840652 1 153.75 135.75 174.75
840763 1 126.75 138.75 174.75
840767 1 138.75 138.75 174.75
840883 1 126.75 141.75 174.75
840887 1 138.75 141.75 174.75
841836 1 105.75 165.75 174.75
854684 1 129.75 126.75 177.75
869447 1 138.75 135.75 180.75
869576 1 165.75 138.75 180.75
869683 1 126.75 141.75 180.75
883592 1 93.75 129.75 183.75
884083 1 126.75 141.75 183.75
898129 1 144.75 132.75 186.75
898372 1 153.75 138.75 186.75
912412 1 153.75 129.75 189.75
913494 1 159.75 156.75 189.75
941687 1 138.75 141.75 195.75
970599 1 114.75 144.75 201.75
983450 1 147.75 105.75 204.75
983570 1 147.75 108.75 204.75
2438676 1 107.25 128.25 149.25
2467375 1 164.25 125.25 155.25
2467615 1 164.25 131.25 155.25
2481641 1 122.25 122.25 158.25
2496763 1 128.25 140.25 161.25
2511284 1 131.25 143.25 164.25
2511414 1 161.25 146.25 164.25
2525562 1 125.25 140.25 167.25
2525569 1 146.25 140.25 167.25
2525682 1 125.25 143.25 167.25
2553647 1 140.25 122.25 173.25
2554013 1 158.25 131.25 173.25
2554240 1 119.25 137.25 173.25
2554241 1 122.25 137.25 173.25
2554486 1 137.25 143.25 173.25
2568521 1 122.25 134.25 176.25
2568529 1 146.25 134.25 176.25
2568649 1 146.25 137.25 176.25
2568763 1 128.25 140.25 176.25
2568882 1 125.25 143.25 176.25
2568883 1 128.25 143.25 176.25
2569003 1 128.25 146.25 176.25
2569121 1 122.25 149.25 176.25
2583166 1 137.25 140.25 179.25
2596968 1 143.25 125.25 182.25
2597443 1 128.25 137.25 182.25
2597561 1 122.25 140.25 182.25
2597566 1 137.25 140.25 182.25
2597929 1 146.25 149.25 182.25
2611603 1 128.25 131.25 185.25
2612564 1 131.25 155.25 185.25
2725730 1 149.25 104.25 209.25
2727052 1 155.25 137.25 209.25
2740009 1 146.25 101.25 212.25
