ITEM: TIMESTEP
90607
ITEM: NUMBER OF ATOMS
71
ITEM: BOX BOUNDS pp pp pp
0 360
0 360
0 360
ITEM: ATOMS id type x y z
483287 1 138.75 201.75 99.75
497688 1 141.75 201.75 102.75
582177 1 168.75 153.75 120.75
582419 1 174.75 159.75 120.75
596699 1 174.75 156.75 123.75
611226 1 195.75 159.75 126.75
625856 1 165.75 165.75 129.75
640133 1 156.75 162.75 132.75
640498 1 171.75 171.75 132.75
654660 1 177.75 165.75 135.75
655378 1 171.75 183.75 135.75
683336 1 165.75 162.75 141.75
683700 1 177.75 171.75 141.75
697498 1 171.75 156.75 144.75
697860 1 177.75 165.75 144.75
697976 1 165.75 168.75 144.75
711535 1 162.75 147.75 147.75
711898 1 171.75 156.75 147.75
726298 1 171.75 156.75 150.75
726418 1 171.75 159.75 150.75
770205 1 132.75 174.75 159.75
827329 1 144.75 162.75 171.75
941821 1 180.75 144.75 195.75
1000137 1 168.75 162.75 207.75
1028565 1 132.75 153.75 213.75
1028800 1 117.75 159.75 213.75
1128395 1 102.75 129.75 234.75
2182605 1 134.25 206.25 95.25
2324938 1 173.25 164.25 125.25
2325054 1 161.25 167.25 125.25
2338621 1 182.25 146.25 128.25
2338978 1 173.25 155.25 128.25
2353381 1 182.25 155.25 131.25
2353737 1 170.25 164.25 131.25
2353740 1 179.25 164.25 131.25
2353857 1 170.25 167.25 131.25
2368139 1 176.25 164.25 134.25
2368140 1 179.25 164.25 134.25
2368379 1 176.25 170.25 134.25
2382779 1 176.25 170.25 137.25
2383137 1 170.25 179.25 137.25
2396820 1 179.25 161.25 140.25
2397056 1 167.25 167.25 140.25
2410973 1 158.25 155.25 143.25
2411099 1 176.25 158.25 143.25
2411216 1 167.25 161.25 143.25
2411217 1 170.25 161.25 143.25
2411335 1 164.25 164.25 143.25
2411336 1 167.25 164.25 143.25
2411458 1 173.25 167.25 143.25
2424661 1 182.25 137.25 146.25
2425142 1 185.25 149.25 146.25
2440137 1 170.25 164.25 149.25
2440255 1 164.25 167.25 149.25
2454296 1 167.25 158.25 152.25
2454297 1 170.25 158.25 152.25
2468696 1 167.25 158.25 155.25
2482973 1 158.25 155.25 158.25
2482977 1 170.25 155.25 158.25
2482978 1 173.25 155.25 158.25
2497255 1 164.25 152.25 161.25
2526420 1 179.25 161.25 167.25
2555100 1 179.25 158.25 173.25
2555579 1 176.25 170.25 173.25
2584611 1 152.25 176.25 179.25
2598046 1 137.25 152.25 182.25
2626499 1 176.25 143.25 188.25
2670056 1 167.25 152.25 197.25
2728380 1 179.25 170.25 209.25
2785123 1 128.25 149.25 221.25
2814038 1 113.25 152.25 227.25
