ITEM: TIMESTEP
84000
ITEM: NUMBER OF ATOMS
72
ITEM: BOX BOUNDS pp pp pp
0 360
0 360
0 360
ITEM: ATOMS id type x y z c_myKE c_myPE
2325534 1 159.319 180.822 120.677 0.0646059 -6.76041
2497960 1 116.587 170.479 159.062 0.0602129 -6.49863
2497598 1 107.908 160.974 161.027 0.114067 -6.01588
782223 1 186.757 109.61 164.049 0.198266 -5.71839
2512007 1 136.701 161.021 164.354 0.0763535 -6.90981
2540688 1 141.666 155.908 168.749 0.0759676 -6.77105
2526288 1 140.172 157.684 167.403 0.0686523 -8.05298
2526408 1 140.135 160.845 167.459 0.0169 -7.66761
2553790 1 213.09 123.005 171.762 0.378233 -6.40956
826972 1 149.725 154.749 173.61 0.197427 -8.2152
2554972 1 152.937 154.844 173.764 0.100399 -7.51481
2572113 1 92.3118 226.319 174.935 0.257286 -6.24233
855653 1 149.695 148.36 176.83 0.32847 -8.0977
2569250 1 146.66 151.434 177.011 0.114526 -8.43246
2583772 1 151.631 152.946 178.43 0.0501318 -8.13923
855771 1 149.909 151.385 180.35 0.155774 -7.62539
884346 1 194.551 135.579 187.03 0.219807 -7.54235
883982 1 189.439 138.523 186.867 0.132528 -7.79456
2626145 1 194.373 132.285 190.715 0.116725 -8.3037
927185 1 195.967 135.677 189.227 0.0283452 -7.11506
913022 1 189.724 142.225 189.362 0.091737 -7.86654
2654316 1 101.832 116.753 194.09 0.139557 -6.50544
2683625 1 196.438 132.468 192.418 0.253856 -8.06004
2641027 1 194.43 136.296 194.132 0.0734821 -8.44963
2669468 1 192.753 138.904 192.838 0.411463 -7.11523
2669945 1 192.808 148.099 195.963 0.041609 -6.97443
970023 1 187.292 125.741 200.888 0.311948 -7.62439
2697545 1 197.223 119.826 206.472 0.141233 -7.03844
2712761 1 119.593 136.961 208.651 0.0342374 -7.55022
2769297 1 171.963 110.181 220.222 0.519382 -6.21049
2771564 1 129.021 170.66 221.354 0.0930054 -5.32596
2769072 1 219.903 103.335 224.927 0.0356437 -7.00166
2800595 1 100.587 175.059 228.075 0.16686 -6.71475
2814760 1 116.6 170.67 230.928 0.35201 -7.34064
2814996 1 103.706 175.254 230.928 0.102951 -6.77468
2829990 1 84.1721 191.118 231.406 0.691442 -6.28389
2843794 1 95.4526 175.442 235.276 0.142751 -7.05862
2829280 1 116.259 173.947 234.029 0.168513 -6.83423
2856195 1 226.112 120.912 240.843 0.00716848 -6.37226
2999109 1 209.005 91.7691 272.89 0.0876636 -6.90215
3002557 1 106.769 185.003 272.613 0.14262 -6.32551
667392 1 215.339 121.099 137.568 0.112835 -5.91078
798408 1 138.409 159.313 165.849 0.0636219 -7.60074
2554851 1 148.187 153.166 172.107 0.502737 -8.10896
2554609 1 148.134 146.742 175.33 0.0908696 -7.81363
855769 1 143.583 151.179 176.893 0.0296422 -7.71533
841250 1 149.788 151.442 176.715 0.104208 -8.22631
841370 1 145.061 152.994 175.365 0.0727697 -8.08719
2554971 1 148.27 153.134 175.234 0.0341014 -8.61414
2569251 1 151.296 153.351 175.369 0.283314 -8.42199
884102 1 190.562 137.149 188.769 0.0131872 -7.85588
900158 1 108.268 185.09 187.788 0.0441594 -6.13601
927305 1 194.507 137.589 191.135 0.263126 -7.44155
912902 1 191.325 140.598 191.411 0.0365112 -7.49778
2655766 1 135.164 154.111 192.598 0.147773 -7.14243
970026 1 197.903 130.85 195.999 0.178429 -7.81016
970024 1 191.139 124.108 198.832 0.282669 -7.9782
2668864 1 192.757 122.103 202.359 0.0820345 -7.9616
984305 1 191.1 127.551 202.353 0.228337 -7.66244
2726705 1 192.822 124.22 204.276 0.146328 -8.06127
970479 1 115.116 138.348 204.124 0.0334763 -7.03759
985000 1 115.051 141.722 207.501 0.119905 -6.75492
985010 1 146.747 143.565 207.306 0.149657 -6.82181
985131 1 149.72 146.389 207.265 0.226098 -6.40552
1055593 1 218.209 105.463 223.279 0.0677291 -6.52265
2826914 1 224.815 111.563 236.719 0.398424 -6.86614
1129006 1 133.864 141.851 237.346 0.134851 -6.12111
1130194 1 93.6881 173.675 237.111 0.125021 -7.56675
1115800 1 114.949 175.785 235.715 0.0196241 -6.15482
1243959 1 111.7 135.324 264.647 0.0884828 -6.64861
1300760 1 242.658 114.411 277.338 0.311212 -6.33219
1329019 1 47.7383 100.081 283.634 0.0169145 -6.72984
