ITEM: TIMESTEP
84000
ITEM: NUMBER OF ATOMS
72
ITEM: BOX BOUNDS pp pp pp
0 360
0 360
0 360
ITEM: ATOMS id type x y z
597654 1 159.75 180.75 123.75
770081 1 120.75 171.75 159.75
784118 1 111.75 162.75 162.75
796623 1 186.75 114.75 165.75
798527 1 138.75 162.75 165.75
812689 1 144.75 156.75 168.75
812808 1 141.75 159.75 168.75
812928 1 141.75 162.75 168.75
825911 1 210.75 126.75 171.75
841491 1 150.75 156.75 174.75
841492 1 153.75 156.75 174.75
844113 1 96.75 222.75 174.75
855651 1 150.75 150.75 177.75
855770 1 147.75 153.75 177.75
855772 1 153.75 153.75 177.75
870171 1 150.75 153.75 180.75
898385 1 192.75 138.75 186.75
898504 1 189.75 141.75 186.75
912665 1 192.75 135.75 189.75
912786 1 195.75 138.75 189.75
913024 1 189.75 144.75 189.75
926436 1 105.75 120.75 192.75
927066 1 195.75 135.75 192.75
927185 1 192.75 138.75 192.75
927305 1 192.75 141.75 192.75
942065 1 192.75 150.75 195.75
955623 1 186.75 129.75 198.75
984186 1 195.75 123.75 204.75
999162 1 123.75 138.75 207.75
1041418 1 171.75 114.75 216.75
1058085 1 132.75 171.75 219.75
1069993 1 216.75 108.75 222.75
1086996 1 105.75 174.75 225.75
1101281 1 120.75 171.75 228.75
1101397 1 108.75 174.75 228.75
1101991 1 90.75 189.75 228.75
1115794 1 99.75 174.75 231.75
1115801 1 120.75 174.75 231.75
1142595 1 222.75 123.75 237.75
1285510 1 207.75 96.75 267.75
1288958 1 111.75 183.75 267.75
2395391 1 212.25 125.25 140.25
2526407 1 140.25 161.25 167.25
2554970 1 149.25 155.25 173.25
2569130 1 149.25 149.25 176.25
2569249 1 146.25 152.25 176.25
2569251 1 152.25 152.25 176.25
2569369 1 146.25 155.25 176.25
2569370 1 149.25 155.25 176.25
2569371 1 152.25 155.25 176.25
2626384 1 191.25 140.25 188.25
2628158 1 113.25 185.25 188.25
2640785 1 194.25 140.25 191.25
2640904 1 191.25 143.25 191.25
2641366 1 137.25 155.25 191.25
2654946 1 197.25 134.25 194.25
2669104 1 191.25 128.25 197.25
2683384 1 191.25 125.25 200.25
2683624 1 191.25 131.25 200.25
2697904 1 191.25 128.25 203.25
2698360 1 119.25 140.25 203.25
2712880 1 119.25 143.25 206.25
2713010 1 149.25 146.25 206.25
2713131 1 152.25 149.25 206.25
2783592 1 215.25 110.25 221.25
2841434 1 221.25 116.25 233.25
2842486 1 137.25 143.25 233.25
2843673 1 98.25 173.25 233.25
2843800 1 119.25 176.25 233.25
2971839 1 116.25 137.25 260.25
3028760 1 239.25 119.25 272.25
3056899 1 56.25 104.25 278.25
