ITEM: TIMESTEP
88000
ITEM: NUMBER OF ATOMS
81
ITEM: BOX BOUNDS pp pp pp
0 360
0 360
0 360
ITEM: ATOMS id type x y z c_myKE c_myPE
2311862 1 186.496 197.036 119.607 0.0808831 -6.30399
654164 1 128.996 157.719 130.209 0.014797 -7.05816
2367765 1 132.378 152.356 131.952 0.258953 -6.99574
654174 1 157.898 154.34 136.724 0.138382 -6.71007
2440855 1 161.937 184.538 141.744 0.81882 -6.71313
2412414 1 159.422 184.562 145.054 0.292573 -7.06135
2467237 1 104.668 117.548 152.773 0.0594 -6.73397
2484412 1 154.702 192.969 154.946 0.160629 -7.76481
756292 1 151.312 186.685 157.999 0.12041 -7.40344
2498812 1 151.522 189.604 157.788 0.127631 -8.2016
770693 1 154.546 189.725 157.877 0.307813 -8.03561
2498932 1 151.578 192.915 157.53 0.114872 -8.26119
814372 1 149.671 197.347 159.167 0.273939 -8.03206
2513092 1 151.435 189.432 160.986 0.0119978 -8.06785
2513452 1 151.367 195.919 160.909 0.0566448 -8.33022
799731 1 146.614 194.159 165.667 0.26123 -8.69591
2513571 1 146.701 200.43 165.665 0.0203421 -8.54819
800091 1 148.299 199.021 164.151 0.0030709 -8.74321
2526424 1 193.054 160.824 167.124 0.384749 -6.39932
828410 1 143.489 191.062 168.699 0.263398 -8.50898
2527850 1 145.172 195.86 167.257 0.254208 -8.55428
2542369 1 143.525 200.253 168.701 0.45439 -8.02811
2527967 1 139.097 202.379 167.416 0.119461 -6.27528
828290 1 143.51 190.9 171.739 0.411442 -7.47096
2556529 1 141.895 195.821 170.519 0.355998 -8.46713
2556768 1 140.163 200.502 171.762 0.0575548 -7.76088
857329 1 143.51 193.919 175.146 0.210436 -7.9653
2582567 1 138.715 121.002 180.269 0.32431 -6.81713
2642461 1 181.244 181.532 191.084 0.0693462 -6.72025
2628520 1 116.194 194.248 189.699 0.126755 -5.83308
2675189 1 79.5382 288.471 199.216 0.101152 -6.79084
2744563 1 126.018 218.145 215.303 0.126583 -5.97694
598144 1 191.359 192.468 121.113 0.414893 -6.95868
2328778 1 175.319 265.529 121.179 0.7874 -5.66791
627548 1 202.254 210.372 125.376 0.267085 -7.03975
625486 1 133.746 156.109 128.977 0.593408 -7.05423
626806 1 134.124 189.231 127.284 0.332896 -6.28057
2367764 1 127.854 153.148 134.906 0.10257 -6.94862
668573 1 154.388 151.277 136.913 0.151032 -6.34358
729652 1 148.13 243.668 147.824 0.0637753 -6.61842
726280 1 113.002 157.522 150.806 0.263373 -6.62022
770933 1 152.915 191.075 156.179 0.0702535 -8.08279
2484533 1 156.308 191.114 156.313 0.068942 -7.2453
785091 1 149.94 191.212 159.251 0.187233 -8.51536
2499170 1 148.032 199.146 160.878 0.239968 -8.46592
799245 1 128.788 181.484 163.636 0.23156 -6.52432
2527610 1 148.174 192.696 164.035 0.239438 -8.45702
799612 1 149.774 191.212 162.44 0.186269 -8.25913
785331 1 149.79 194.312 162.469 0.566046 -8.76646
2513332 1 149.893 197.402 162.52 0.306712 -8.47708
2513570 1 145.085 202.108 164.096 0.0491023 -7.59851
2499290 1 146.741 200.654 162.623 0.113845 -7.77046
800211 1 148.081 205.117 163.987 0.00802634 -7.72107
814130 1 144.963 192.647 167.168 0.164417 -8.15883
814131 1 146.634 191.146 165.57 0.12995 -8.58794
814370 1 145.103 198.863 167.272 0.192737 -8.71492
799971 1 146.822 197.223 165.672 0.092199 -8.70684
814371 1 149.862 197.287 165.744 0.0154291 -8.6674
2527970 1 145.019 201.958 167.324 0.164665 -7.7813
802123 1 122.669 256.577 165.783 0.204249 -6.37903
802244 1 125.905 259.657 165.996 0.267871 -6.92444
2527611 1 144.728 189.265 170.19 0.210421 -7.78484
2556531 1 145.074 195.672 170.454 0.101227 -8.59505
828649 1 141.876 198.897 170.389 0.231438 -8.55061
814250 1 143.574 197.34 168.911 0.184837 -8.46679
828889 1 141.893 202.072 170.381 0.0978533 -8.04971
843049 1 141.817 195.75 173.557 0.379069 -7.76681
2542009 1 143.514 194.049 172.16 0.113928 -8.57029
885531 1 148.125 178.53 182.965 0.182445 -6.07567
2601285 1 130.818 230.948 183.164 0.139178 -6.30535
914205 1 130.605 175.19 191.336 0.0958417 -6.87857
928605 1 130.82 175.137 194.66 0.068707 -6.24563
928606 1 133.592 175.017 194.747 0.283925 -6.47747
1000118 1 106.525 162.804 207.766 0.140352 -6.71311
1002751 1 86.215 232.929 210.392 0.213679 -7.08451
2759553 1 90.7888 233.603 214.992 0.132838 -7.34143
1031553 1 90.5855 231.032 216.602 0.400509 -7.01416
2759673 1 93.7648 234.023 218.325 0.0885814 -6.25911
2786216 1 169.108 173.263 223.206 0.00896962 -5.81467
1071278 1 109.898 138.371 226.583 0.222198 -6.57388
1275620 1 49.0902 211.637 269 0.143522 -5.80059
