ITEM: TIMESTEP
92000
ITEM: NUMBER OF ATOMS
84
ITEM: BOX BOUNDS pp pp pp
0 360
0 360
0 360
ITEM: ATOMS id type x y z c_myKE c_myPE
2252936 1 167.464 163.964 104.229 0.188663 -6.57601
2387337 1 168.766 291.981 133.498 0.0688208 -7.23698
2387456 1 165.728 294.912 133.539 0.219163 -7.36501
2401856 1 165.527 294.982 136.545 0.0285841 -8.15485
2401857 1 168.599 295.171 136.587 0.195783 -7.5128
2400525 1 130.511 259.878 138.821 0.0308505 -6.47247
2439295 1 161.458 141.843 144.845 0.16051 -7.13172
2425136 1 164.276 143.166 144.941 0.16471 -7.19815
2441578 1 172.048 202.432 146.168 0.131296 -5.90584
2439174 1 164.237 139.883 148.032 0.0169597 -6.60368
2485727 1 139.044 226.353 155.954 0.315197 -7.2307
2487177 1 170.752 267.537 157.994 0.221619 -6.56164
783180 1 178.463 138.753 160.99 0.144465 -6.77027
2544901 1 181.657 267.614 168.332 0.333255 -6.60722
814845 1 129.292 212.198 170.712 0.0762046 -6.86727
845815 1 162.434 269.55 171.951 0.360881 -7.00122
2559414 1 159.453 272.635 171.96 0.00973215 -6.86073
2583644 1 129.137 149.639 178.397 0.00653238 -6.58539
2555926 1 129.112 184.726 176.834 0.0599837 -7.67612
856963 1 125.89 191.077 177.018 0.189912 -8.38293
2556525 1 132.299 191.274 176.825 0.0701213 -8.35445
843046 1 135.789 197.59 177.093 0.33219 -8.11629
2599603 1 123.124 191.107 180.167 0.214493 -7.57257
871362 1 125.92 191.366 180.124 0.0911122 -8.23578
842564 1 129.08 191.109 180.115 0.0664036 -8.65572
857207 1 132.439 191.319 179.973 0.159115 -8.50914
857446 1 133.731 192.874 181.616 0.0128569 -8.49237
2571044 1 132.37 197.481 180.076 0.122207 -8.26119
857804 1 129.363 203.735 180.147 0.0834937 -7.72125
900645 1 129.153 191.319 183.174 0.321625 -8.61605
857445 1 129.229 197.503 183.202 0.129943 -8.75687
871846 1 129.2 200.814 183.125 0.217654 -7.95887
2628522 1 125.927 194.375 186.275 0.138093 -7.8953
2614124 1 126.282 197.688 186.297 0.109248 -8.37741
945401 1 119.496 237.54 197.747 0.227811 -6.56084
567541 1 181.973 144.472 112.965 0.125365 -6.78133
581940 1 178.611 144.832 116.098 0.420401 -6.14149
669279 1 111.663 170.26 135.299 0.0626169 -5.56634
674096 1 163.859 299.682 135.469 0.448398 -7.52357
688376 1 164.011 296.676 138.375 0.0236584 -6.96924
2415175 1 162.744 264.678 143.573 0.134489 -6.6727
724614 1 157.409 109.737 146.555 0.00876133 -7.03255
757727 1 137.597 224.722 154.439 0.160088 -7.18389
755102 1 184.958 154.289 156.432 0.133577 -6.01502
759298 1 172.385 263.199 156.191 0.141615 -6.62483
773579 1 175.599 262.959 159.134 0.285443 -7.27978
813171 1 143.45 178.795 165.921 0.123623 -6.46883
2556284 1 130.621 186.4 172.042 0.0951035 -7.84457
2556516 1 105.021 194.561 173.151 0.153564 -5.85638
2542604 1 127.355 210.585 172.113 0.0309925 -6.49277
855899 1 176.84 156.762 176.718 0.0958463 -6.56153
828045 1 130.599 183.035 175.606 0.251683 -7.64698
813765 1 130.742 186.412 175.253 0.0954554 -8.18957
2555807 1 134.027 186.441 175.467 0.0196784 -7.78462
842683 1 130.67 189.512 175.247 0.0527889 -8.25217
842928 1 134.008 195.977 175.235 0.146444 -7.10199
2571645 1 130.476 210.351 175.299 0.0288852 -6.97292
842805 1 130.785 186.445 178.289 0.0571703 -8.5666
828405 1 130.856 189.759 178.406 0.168081 -8.45562
871725 1 133.953 192.679 178.312 0.0951451 -8.32948
842566 1 133.988 196.036 178.467 0.0795009 -8.55917
857566 1 133.778 199.092 178.559 0.0340796 -7.84309
885766 1 127.546 186.312 181.684 0.549711 -7.65799
857084 1 130.784 192.861 181.553 0.0159789 -8.78511
886243 1 124.484 195.884 181.856 0.5521 -8.0918
2570686 1 130.748 195.96 181.509 0.0303802 -8.78155
2571283 1 130.83 199.183 181.419 0.316299 -8.38498
2599483 1 130.748 192.957 184.793 0.156872 -8.72771
2599843 1 127.491 195.903 184.759 0.305529 -8.80321
2600082 1 124.201 202.226 184.882 0.476331 -7.46805
900524 1 124.52 196.093 187.886 0.274609 -7.57291
900525 1 130.67 196.045 188.063 0.0076867 -8.6682
918659 1 172.254 294.193 188.218 0.0228498 -5.85357
900523 1 127.507 196.001 191.22 0.117226 -7.53021
930539 1 175.211 224.428 194.22 0.122478 -5.8318
945282 1 121.107 236.174 196.119 0.0271684 -6.44377
944819 1 175.339 221.56 197.626 0.133432 -6.64084
947456 1 164.069 291.127 198.221 0.134897 -6.85619
1117498 1 172.27 218.428 234.026 0.0331997 -6.93572
2845497 1 172.21 220.264 235.66 0.104975 -6.97684
2859289 1 145.051 205.04 243.852 0.20695 -7.47283
1145810 1 146.861 207.32 243.698 0.00224152 -7.39564
1160210 1 146.922 205.464 245.841 0.136005 -7.43482
2873809 1 145 207.208 245.47 0.261683 -7.2537
