ITEM: TIMESTEP
92626
ITEM: NUMBER OF ATOMS
183
ITEM: BOX BOUNDS pp pp pp
0 360
0 360
0 360
ITEM: ATOMS id type x y z
697846 1 135.75 165.75 144.75
740933 1 156.75 162.75 153.75
741052 1 153.75 165.75 153.75
741170 1 147.75 168.75 153.75
741289 1 144.75 171.75 153.75
741762 1 123.75 183.75 153.75
741882 1 123.75 186.75 153.75
741883 1 126.75 186.75 153.75
742003 1 126.75 189.75 153.75
742596 1 105.75 204.75 153.75
742717 1 108.75 207.75 153.75
742838 1 111.75 210.75 153.75
755453 1 156.75 165.75 156.75
755571 1 150.75 168.75 156.75
755572 1 153.75 168.75 156.75
755689 1 144.75 171.75 156.75
755690 1 147.75 171.75 156.75
755692 1 153.75 171.75 156.75
755807 1 138.75 174.75 156.75
755808 1 141.75 174.75 156.75
755809 1 144.75 174.75 156.75
755810 1 147.75 174.75 156.75
755811 1 150.75 174.75 156.75
755927 1 138.75 177.75 156.75
755928 1 141.75 177.75 156.75
756046 1 135.75 180.75 156.75
756047 1 138.75 180.75 156.75
756164 1 129.75 183.75 156.75
756284 1 129.75 186.75 156.75
756404 1 129.75 189.75 156.75
756522 1 123.75 192.75 156.75
756523 1 126.75 192.75 156.75
756524 1 129.75 192.75 156.75
756643 1 126.75 195.75 156.75
756997 1 108.75 204.75 156.75
757118 1 111.75 207.75 156.75
770093 1 156.75 171.75 159.75
770213 1 156.75 174.75 159.75
770214 1 159.75 174.75 159.75
770331 1 150.75 177.75 159.75
770445 1 132.75 180.75 159.75
770448 1 141.75 180.75 159.75
770449 1 144.75 180.75 159.75
770450 1 147.75 180.75 159.75
770565 1 132.75 183.75 159.75
770566 1 135.75 183.75 159.75
770567 1 138.75 183.75 159.75
770568 1 141.75 183.75 159.75
770569 1 144.75 183.75 159.75
770686 1 135.75 186.75 159.75
770687 1 138.75 186.75 159.75
770805 1 132.75 189.75 159.75
770806 1 135.75 189.75 159.75
770925 1 132.75 192.75 159.75
770926 1 135.75 192.75 159.75
771044 1 129.75 195.75 159.75
771045 1 132.75 195.75 159.75
771163 1 126.75 198.75 159.75
771164 1 129.75 198.75 159.75
771284 1 129.75 201.75 159.75
771398 1 111.75 204.75 159.75
771403 1 126.75 204.75 159.75
771519 1 114.75 207.75 159.75
771636 1 105.75 210.75 159.75
771637 1 108.75 210.75 159.75
771757 1 108.75 213.75 159.75
784970 1 147.75 183.75 162.75
784971 1 150.75 183.75 162.75
785088 1 141.75 186.75 162.75
785089 1 144.75 186.75 162.75
785090 1 147.75 186.75 162.75
785207 1 138.75 189.75 162.75
785208 1 141.75 189.75 162.75
785209 1 144.75 189.75 162.75
785327 1 138.75 192.75 162.75
785328 1 141.75 192.75 162.75
785446 1 135.75 195.75 162.75
785447 1 138.75 195.75 162.75
785565 1 132.75 198.75 162.75
785566 1 135.75 198.75 162.75
785685 1 132.75 201.75 162.75
797458 1 171.75 135.75 165.75
799491 1 150.75 186.75 165.75
799610 1 147.75 189.75 165.75
799611 1 150.75 189.75 165.75
799729 1 144.75 192.75 165.75
799730 1 147.75 192.75 165.75
799848 1 141.75 195.75 165.75
799849 1 144.75 195.75 165.75
799967 1 138.75 198.75 165.75
799968 1 141.75 198.75 165.75
814130 1 147.75 192.75 168.75
814131 1 150.75 192.75 168.75
814250 1 147.75 195.75 168.75
817245 1 132.75 270.75 168.75
830226 1 195.75 234.75 171.75
972298 1 171.75 186.75 201.75
986818 1 171.75 189.75 204.75
1103585 1 192.75 228.75 228.75
2468932 1 155.25 164.25 155.25
2468933 1 158.25 164.25 155.25
2469050 1 149.25 167.25 155.25
2469051 1 152.25 167.25 155.25
2469052 1 155.25 167.25 155.25
2469169 1 146.25 170.25 155.25
2469170 1 149.25 170.25 155.25
2469288 1 143.25 173.25 155.25
2469405 1 134.25 176.25 155.25
2469406 1 137.25 176.25 155.25
2469526 1 137.25 179.25 155.25
2469763 1 128.25 185.25 155.25
2469883 1 128.25 188.25 155.25
2470002 1 125.25 191.25 155.25
2470003 1 128.25 191.25 155.25
2483452 1 155.25 167.25 158.25
2483572 1 155.25 170.25 158.25
2483573 1 158.25 170.25 158.25
2483691 1 152.25 173.25 158.25
2483692 1 155.25 173.25 158.25
2483808 1 143.25 176.25 158.25
2483809 1 146.25 176.25 158.25
2483810 1 149.25 176.25 158.25
2483811 1 152.25 176.25 158.25
2483812 1 155.25 176.25 158.25
2483927 1 140.25 179.25 158.25
2483928 1 143.25 179.25 158.25
2483929 1 146.25 179.25 158.25
2483930 1 149.25 179.25 158.25
2484046 1 137.25 182.25 158.25
2484047 1 140.25 182.25 158.25
2484164 1 131.25 185.25 158.25
2484284 1 131.25 188.25 158.25
2484285 1 134.25 188.25 158.25
2484404 1 131.25 191.25 158.25
2484523 1 128.25 194.25 158.25
2484524 1 131.25 194.25 158.25
2484643 1 128.25 197.25 158.25
2485116 1 107.25 209.25 158.25
2485118 1 113.25 209.25 158.25
2498449 1 146.25 182.25 161.25
2498450 1 149.25 182.25 161.25
2498451 1 152.25 182.25 161.25
2498567 1 140.25 185.25 161.25
2498568 1 143.25 185.25 161.25
2498569 1 146.25 185.25 161.25
2498686 1 137.25 188.25 161.25
2498687 1 140.25 188.25 161.25
2498806 1 137.25 191.25 161.25
2498925 1 134.25 194.25 161.25
2498926 1 137.25 194.25 161.25
2499044 1 131.25 197.25 161.25
2499045 1 134.25 197.25 161.25
2499164 1 131.25 200.25 161.25
2512970 1 149.25 185.25 164.25
2512971 1 152.25 185.25 164.25
2513089 1 146.25 188.25 164.25
2513090 1 149.25 188.25 164.25
2513208 1 143.25 191.25 164.25
2513209 1 146.25 191.25 164.25
2513327 1 140.25 194.25 164.25
2513328 1 143.25 194.25 164.25
2513446 1 137.25 197.25 164.25
2513447 1 140.25 197.25 164.25
2513565 1 134.25 200.25 164.25
2513566 1 137.25 200.25 164.25
2513684 1 131.25 203.25 164.25
2513685 1 134.25 203.25 164.25
2527491 1 152.25 188.25 167.25
2527610 1 149.25 191.25 167.25
2527611 1 152.25 191.25 167.25
2527612 1 155.25 191.25 167.25
2527729 1 146.25 194.25 167.25
2527848 1 143.25 197.25 167.25
2527849 1 146.25 197.25 167.25
2527966 1 137.25 200.25 167.25
2527967 1 140.25 200.25 167.25
2528087 1 140.25 203.25 167.25
2540941 1 182.25 164.25 170.25
2542011 1 152.25 191.25 170.25
2542130 1 149.25 194.25 170.25
2557855 1 164.25 227.25 173.25
2656116 1 107.25 164.25 194.25
2743972 1 155.25 200.25 212.25
