ITEM: TIMESTEP
88000
ITEM: NUMBER OF ATOMS
82
ITEM: BOX BOUNDS pp pp pp
0 360
0 360
0 360
ITEM: ATOMS id type x y z c_myKE c_myPE
2365033 1 219.78 79.3352 130.422 0.038622 -6.46558
2382418 1 173.711 161.16 133.774 0.161126 -6.9309
681785 1 194.273 117.657 140.301 0.00933252 -6.56673
2411103 1 188.282 158.221 140.167 0.196741 -7.66577
711783 1 187.668 154.854 143.238 0.057072 -6.67661
2470010 1 148.352 192.904 152.83 0.369384 -6.44533
2481066 1 199.146 100.886 154.181 0.060523 -6.01882
754141 1 183.241 128.873 155.884 0.0515041 -6.73736
2482720 1 116.404 148.266 154.501 0.327501 -7.47935
754722 1 119.964 148.067 156.42 0.140066 -6.5787
782714 1 221.878 124.077 158.802 0.114661 -6.99932
2482721 1 118.042 148.452 158.087 0.183738 -6.92087
2510821 1 183.258 129.45 162.77 0.0579903 -6.52044
2600340 1 181.47 210.18 184.397 0.0798134 -6.39764
1000140 1 177.984 162.521 207.013 0.130397 -7.81275
1000022 1 181.317 162.505 206.922 0.0982042 -7.0079
1000262 1 181.339 165.409 206.831 0.287521 -7.56339
2713622 1 184.919 159.227 210.188 0.137477 -7.52762
1014424 1 184.902 162.053 210.1 0.174688 -7.95491
1014422 1 181.576 159.402 213.279 0.0475749 -8.60488
1000143 1 184.795 159.256 213.354 0.180963 -8.2943
2742540 1 178.391 162.345 213.52 0.257014 -8.07464
2742421 1 181.448 162.502 213.427 0.256527 -8.65935
2756822 1 184.73 162.422 213.299 0.163573 -8.69668
2756701 1 181.473 156.253 216.622 0.0477903 -7.89802
2756821 1 181.568 159.352 216.613 0.0707241 -8.49504
2742302 1 184.715 159.134 216.307 0.188876 -8.08918
2756940 1 178.351 162.487 216.593 0.132743 -8.63736
2757060 1 178.27 165.651 216.401 0.0624609 -7.70765
2771220 1 178.377 159.276 219.846 0.0947099 -8.41637
2759337 1 168.875 228.017 218.38 0.119884 -6.08376
2785620 1 178.299 159.109 222.733 0.00735937 -8.23936
2785739 1 174.882 162.539 222.603 0.14894 -7.41515
2857975 1 162.084 168.971 238.84 0.114175 -6.36001
2887633 1 219.674 192.661 247.064 0.0543772 -6.45671
2902034 1 223.093 192.936 250.411 0.299602 -7.10006
2902154 1 222.883 196.249 250.32 0.168276 -7.44782
2973771 1 149.503 184.465 264.056 0.252799 -6.85015
2959753 1 219.827 196.107 262.976 0.140084 -7.11706
3088024 1 191.165 159.084 289.809 0.0183049 -7.21076
1360492 1 152.92 168.922 292.657 0.104242 -5.64015
1388457 1 169.174 145.865 294.579 0.464496 -5.65572
580987 1 200.957 121.148 117.8 0.0204222 -6.64416
595628 1 200.873 125.285 119.39 0.126446 -7.11269
566708 1 204.586 124.058 119.677 0.164696 -7.32174
2323387 1 204.359 121.431 121.017 0.0767623 -6.9335
2309106 1 198.072 125.636 122.212 0.060387 -7.14006
639189 1 205.204 137.327 129.047 0.0444914 -6.06285
654418 1 171.98 159.396 132.202 0.0671558 -7.02721
697742 1 184.864 160.201 141.816 0.0387109 -6.55918
740571 1 150.18 150.987 150.937 0.146156 -6.91557
727272 1 216.91 181.656 150.221 0.294111 -7.15778
727393 1 220.006 184.884 149.925 0.138896 -6.41911
768433 1 219.926 125.676 157.305 0.0331231 -6.2438
797342 1 185.165 131.097 163.855 0.381256 -7.31506
784126 1 132.627 163.118 162.617 0.142043 -5.13567
811124 1 125.575 116.045 166.911 0.0843585 -6.58175
854689 1 143.305 122.22 176.635 0.0532594 -6.2195
971686 1 131.942 172.07 202.042 0.134209 -6.05971
2742541 1 183.277 163.938 211.525 0.00504792 -8.19307
1028941 1 180.018 160.791 214.903 0.283625 -8.42493
1043101 1 179.861 154.623 218.264 0.0769851 -7.7956
1043221 1 179.784 157.777 218.197 0.214535 -8.48969
1043339 1 173.516 160.962 218.001 0.219847 -7.85225
1043340 1 176.732 160.96 218.192 0.305139 -8.53607
1043341 1 179.99 160.963 217.931 0.111647 -8.41518
1043460 1 176.709 164.239 218.015 0.424848 -8.43691
1057501 1 179.824 154.357 221.142 0.213002 -7.83359
1057621 1 179.941 157.643 221.128 0.286777 -8.09066
1057740 1 176.694 161.044 220.914 0.0195992 -8.25901
1072021 1 180.008 157.676 224.129 0.0320845 -7.48815
1072259 1 173.483 164.224 224.488 0.0724366 -7.82764
1086779 1 173.299 167.212 227.714 0.0261381 -6.98452
1087391 1 218.41 185.301 230.815 0.141981 -6.41109
1174154 1 221.2 194.622 248.821 0.185318 -7.25359
1231873 1 218.02 197.768 261.559 0.455612 -7.0722
2972335 1 162.833 144.645 264.882 0.135952 -7.0186
3015905 1 197.554 159.651 273.928 0.319549 -6.93996
1360025 1 192.707 157.258 288.614 0.0639512 -5.59762
1374425 1 192.598 157.388 291.368 0.262583 -7.04249
1375856 1 166.105 195.806 293.241 0.0596498 -6.48078
1446059 1 173.055 149.738 307.553 0.206836 -6.57836
