ITEM: TIMESTEP
88713
ITEM: NUMBER OF ATOMS
82
ITEM: BOX BOUNDS pp pp pp
0 360
0 360
0 360
ITEM: ATOMS id type x y z c_myKE c_myPE
2323506 1 199.296 123.821 121.145 0 -6.71081
566708 1 204.516 123.848 119.664 0 -7.05429
2365033 1 219.696 79.356 130.389 0 -6.25523
2382418 1 173.784 161.082 133.435 0 -6.83011
681785 1 194.174 117.638 139.964 0 -6.25792
711783 1 187.642 154.596 143.223 0 -6.71232
2470010 1 148.275 192.955 152.718 0 -6.2549
2481066 1 199.315 100.445 154.66 0 -6.25722
2482601 1 117.852 146.272 156.204 0 -7.51891
754722 1 119.806 147.964 156.32 0 -7.08859
2482721 1 117.942 148.022 158.138 0 -7.33255
2510942 1 186.566 132.362 162.189 0 -6.80617
2497606 1 133.565 161.058 161.034 0 -6.25441
2600340 1 181.423 210.151 184.619 0 -6.25589
1000022 1 181.583 162.251 207.153 0 -8.00182
1000262 1 181.51 165.222 206.933 0 -7.47513
2728142 1 181.615 162.352 210.295 0 -8.45847
1014422 1 181.563 159.263 213.486 0 -8.78171
1000143 1 184.727 159.202 213.335 0 -8.4086
2742540 1 178.284 162.438 213.499 0 -8.33578
2756821 1 181.561 159.259 216.552 0 -8.8183
2756940 1 178.363 162.424 216.573 0 -8.78892
2771101 1 181.597 156.078 219.713 0 -8.34823
2771219 1 175.312 159.291 219.746 0 -8.4417
2771220 1 178.412 159.264 219.743 0 -8.81564
2771339 1 175.213 162.449 219.655 0 -8.33049
2759337 1 168.664 228.051 218.458 0 -6.25399
2785620 1 178.354 159.175 222.878 0 -8.30955
2785739 1 175.039 162.426 222.683 0 -8.03732
2800258 1 171.78 165.63 226.193 0 -6.82488
2857975 1 162.307 168.681 238.822 0 -6.27076
2887633 1 219.615 192.828 247.014 0 -6.6268
2902154 1 222.97 196.274 250.222 0 -7.08276
2959753 1 219.874 195.997 263.234 0 -6.56242
2972215 1 164.218 143.155 266.288 0 -6.25713
3088024 1 190.945 159.178 290.088 0 -6.75964
3088025 1 194.249 159.212 289.724 0 -6.92325
1360492 1 152.711 168.672 293.061 0 -6.25568
1388457 1 168.658 146.337 295.004 0 -6.25633
580987 1 201.12 120.92 117.694 0 -6.9805
595628 1 200.645 125.274 119.412 0 -6.65042
2323387 1 204.447 121.321 121.016 0 -7.33753
639189 1 205.348 137.146 128.806 0 -6.25596
654418 1 172.021 159.307 131.859 0 -6.5419
2396583 1 188.989 156.352 141.458 0 -7.17963
697742 1 184.903 160.287 141.458 0 -7.00328
727272 1 216.781 181.715 149.998 0 -6.54617
727393 1 220.038 184.97 149.874 0 -6.82135
2482720 1 115.982 148.103 154.342 0 -6.93786
768314 1 223.23 122.441 157.513 0 -6.82339
768433 1 219.976 125.699 157.397 0 -6.5435
754141 1 183.086 128.613 156.012 0 -6.24794
782942 1 184.788 130.574 160.544 0 -6.58127
811124 1 125.582 116.032 167.061 0 -6.2537
854689 1 143.476 122.412 176.63 0 -6.25267
971686 1 131.965 172.217 202.145 0 -6.25405
2727901 1 183.183 160.687 208.757 0 -8.26632
1014542 1 179.885 163.801 208.596 0 -7.8158
1014541 1 179.94 160.821 211.909 0 -8.59373
2742422 1 183.122 160.792 211.868 0 -8.74444
2742423 1 186.255 160.75 211.731 0 -7.99293
1028822 1 183.171 157.666 214.98 0 -8.3702
1028941 1 179.96 160.857 215.007 0 -8.82533
1029060 1 176.772 164.074 215.071 0 -8.01996
1043221 1 180.016 157.69 218.202 0 -8.80664
1043222 1 183.164 157.648 218.019 0 -8.42684
1043340 1 176.831 160.874 218.175 0 -8.77966
1043341 1 179.957 160.832 218.119 0 -8.82879
1043460 1 176.738 164.02 218.045 0 -8.4431
1057501 1 179.954 154.45 221.358 0 -7.94146
1057621 1 179.984 157.659 221.29 0 -8.70011
1072021 1 179.948 157.599 224.428 0 -7.78397
1072259 1 173.258 164.008 224.539 0 -7.32476
1087391 1 218.182 185.045 230.896 0 -6.26601
1174154 1 221.107 194.501 248.818 0 -7.61718
1188554 1 221.488 194.724 251.922 0 -6.89334
1245771 1 147.929 183.033 262.756 0 -6.25639
1231873 1 218.116 197.766 261.656 0 -6.79479
3015905 1 197.728 159.466 274.277 0 -6.25897
1374425 1 192.707 157.43 291.583 0 -7.04598
1375856 1 165.822 195.792 293.421 0 -6.25487
1446059 1 173.447 149.879 307.412 0 -6.25886
