ITEM: TIMESTEP
88000
ITEM: NUMBER OF ATOMS
61
ITEM: BOX BOUNDS pp pp pp
0 360
0 360
0 360
ITEM: ATOMS id type x y z
425812 1 153.75 204.75 87.75
454612 1 153.75 204.75 93.75
469012 1 153.75 204.75 96.75
541253 1 156.75 210.75 111.75
541849 1 144.75 225.75 111.75
583611 1 150.75 189.75 120.75
626691 1 150.75 186.75 129.75
668691 1 150.75 156.75 138.75
740565 1 132.75 153.75 153.75
755089 1 144.75 156.75 156.75
771060 1 177.75 195.75 159.75
783408 1 141.75 144.75 162.75
783410 1 147.75 144.75 162.75
783643 1 126.75 150.75 162.75
783646 1 135.75 150.75 162.75
784011 1 150.75 159.75 162.75
784012 1 153.75 159.75 162.75
797817 1 168.75 144.75 165.75
798052 1 153.75 150.75 165.75
798412 1 153.75 159.75 165.75
812211 1 150.75 144.75 168.75
816295 1 162.75 246.75 168.75
816662 1 183.75 255.75 168.75
816773 1 156.75 258.75 168.75
827695 1 162.75 171.75 171.75
845574 1 159.75 258.75 174.75
856242 1 123.75 165.75 177.75
870295 1 162.75 156.75 180.75
874380 1 177.75 258.75 180.75
2153805 1 134.25 206.25 89.25
2168448 1 143.25 212.25 92.25
2269489 1 146.25 218.25 113.25
2269609 1 146.25 221.25 113.25
2468682 1 125.25 158.25 155.25
2469049 1 146.25 167.25 155.25
2481653 1 158.25 122.25 158.25
2482605 1 134.25 146.25 158.25
2482967 1 140.25 155.25 158.25
2497251 1 152.25 152.25 161.25
2497252 1 155.25 152.25 161.25
2497371 1 152.25 155.25 161.25
2515377 1 170.25 245.25 164.25
2515378 1 173.25 245.25 164.25
2515494 1 161.25 248.25 164.25
2525574 1 161.25 140.25 167.25
2525807 1 140.25 146.25 167.25
2526176 1 167.25 155.25 167.25
2526411 1 152.25 161.25 167.25
2540814 1 161.25 161.25 170.25
2544177 1 170.25 245.25 170.25
2554248 1 143.25 137.25 173.25
2555213 1 158.25 161.25 173.25
2555449 1 146.25 167.25 173.25
2569015 1 164.25 146.25 176.25
2569016 1 167.25 146.25 176.25
2569605 1 134.25 161.25 176.25
2571896 1 167.25 218.25 176.25
2572855 1 164.25 242.25 176.25
2587377 1 170.25 245.25 179.25
2601772 1 155.25 245.25 182.25
2630218 1 173.25 236.25 188.25
