ITEM: TIMESTEP
87000
ITEM: NUMBER OF ATOMS
116
ITEM: BOX BOUNDS pp pp pp
0 360
0 360
0 360
ITEM: ATOMS id type x y z
668685 1 132.75 156.75 138.75
726290 1 147.75 156.75 150.75
754970 1 147.75 153.75 156.75
769972 1 153.75 168.75 159.75
784490 1 147.75 171.75 162.75
812924 1 129.75 162.75 168.75
913249 1 144.75 150.75 189.75
986087 1 138.75 171.75 204.75
1015148 1 201.75 177.75 210.75
1015149 1 204.75 177.75 210.75
1028202 1 123.75 144.75 213.75
1028444 1 129.75 150.75 213.75
1058827 1 198.75 189.75 219.75
1084959 1 114.75 123.75 225.75
1085079 1 114.75 126.75 225.75
1086038 1 111.75 150.75 225.75
1086540 1 177.75 162.75 225.75
1086541 1 180.75 162.75 225.75
1100816 1 165.75 159.75 228.75
1100941 1 180.75 162.75 228.75
1101303 1 186.75 171.75 228.75
1101423 1 186.75 174.75 228.75
1101424 1 189.75 174.75 228.75
1101904 1 189.75 186.75 228.75
1113760 1 117.75 123.75 231.75
1115826 1 195.75 174.75 231.75
1128514 1 99.75 132.75 234.75
1129378 1 171.75 153.75 234.75
1129620 1 177.75 159.75 234.75
1129737 1 168.75 162.75 234.75
1129742 1 183.75 162.75 234.75
1129743 1 186.75 162.75 234.75
1129862 1 183.75 165.75 234.75
1129863 1 186.75 165.75 234.75
1129982 1 183.75 168.75 234.75
1129985 1 192.75 168.75 234.75
1129986 1 195.75 168.75 234.75
1130103 1 186.75 171.75 234.75
1130104 1 189.75 171.75 234.75
1130224 1 189.75 174.75 234.75
1130347 1 198.75 177.75 234.75
1143902 1 183.75 156.75 237.75
1144141 1 180.75 162.75 237.75
1144747 1 198.75 177.75 237.75
1158302 1 183.75 156.75 240.75
1158781 1 180.75 168.75 240.75
1158906 1 195.75 171.75 240.75
1172338 1 171.75 147.75 243.75
1172699 1 174.75 156.75 243.75
1173181 1 180.75 168.75 243.75
1186480 1 117.75 141.75 246.75
1186862 1 183.75 150.75 246.75
1187945 1 192.75 177.75 246.75
1201613 1 156.75 159.75 249.75
1201862 1 183.75 165.75 249.75
1216379 1 174.75 168.75 252.75
1229944 1 189.75 147.75 255.75
1230663 1 186.75 165.75 255.75
2410729 1 146.25 149.25 143.25
2497732 1 155.25 164.25 161.25
2525927 1 140.25 149.25 167.25
2540457 1 170.25 152.25 170.25
2540695 1 164.25 158.25 170.25
2540935 1 164.25 164.25 170.25
2568896 1 167.25 143.25 176.25
2569614 1 161.25 161.25 176.25
2569978 1 173.25 170.25 176.25
2583888 1 143.25 158.25 179.25
2584010 1 149.25 161.25 179.25
2584135 1 164.25 164.25 179.25
2598535 1 164.25 164.25 182.25
2598775 1 164.25 170.25 182.25
2641489 1 146.25 158.25 191.25
2669681 1 122.25 143.25 197.25
2700180 1 179.25 185.25 203.25
2728499 1 176.25 173.25 209.25
2741926 1 137.25 149.25 212.25
2742645 1 134.25 167.25 212.25
2742784 1 191.25 170.25 212.25
2771342 1 185.25 164.25 218.25
2771942 1 185.25 179.25 218.25
2772185 1 194.25 185.25 218.25
2786222 1 185.25 176.25 221.25
2786344 1 191.25 179.25 221.25
2800018 1 173.25 161.25 224.25
2801103 1 188.25 188.25 224.25
2814537 1 170.25 164.25 227.25
2814540 1 179.25 164.25 227.25
2814662 1 185.25 167.25 227.25
2814784 1 191.25 170.25 227.25
2827975 1 164.25 140.25 230.25
2828455 1 164.25 152.25 230.25
2828696 1 167.25 158.25 230.25
2828697 1 170.25 158.25 230.25
2829062 1 185.25 167.25 230.25
2829178 1 173.25 170.25 230.25
2829424 1 191.25 176.25 230.25
2829785 1 194.25 185.25 230.25
2842855 1 164.25 152.25 233.25
2842857 1 170.25 152.25 233.25
2842858 1 173.25 152.25 233.25
2843220 1 179.25 161.25 233.25
2843342 1 185.25 164.25 233.25
2857501 1 182.25 158.25 236.25
2857983 1 188.25 170.25 236.25
2871633 1 98.25 152.25 239.25
2872024 1 191.25 161.25 239.25
2885695 1 164.25 143.25 242.25
2885911 1 92.25 149.25 242.25
2886183 1 188.25 155.25 242.25
2886782 1 185.25 170.25 242.25
2899724 1 131.25 134.25 245.25
2914982 1 185.25 155.25 248.25
2944145 1 194.25 164.25 254.25
2957336 1 167.25 134.25 257.25
2958184 1 191.25 155.25 257.25
