ITEM: TIMESTEP
90000
ITEM: NUMBER OF ATOMS
89
ITEM: BOX BOUNDS pp pp pp
0 360
0 360
0 360
ITEM: ATOMS id type x y z c_myKE c_myPE
2427299 1 175.601 205.492 142.707 0.18486 -6.3096
2500120 1 116.423 226.248 159.068 0.0116984 -6.90111
2539366 1 135.51 121.233 167.332 0.0378848 -6.10636
840520 1 113.067 130.622 176.825 0.133275 -6.8453
2583039 1 111.502 135.63 178.361 0.277006 -8.04121
2597318 1 108.313 132.466 181.482 0.133553 -7.96286
2597439 1 111.737 135.756 181.519 0.512229 -8.49506
2597320 1 114.65 135.935 181.485 0.190428 -8.17092
2597558 1 108.398 138.774 181.662 0.209097 -7.99528
2597559 1 111.657 138.777 181.55 0.127262 -8.32588
872326 1 135.582 208.678 181.524 0.653832 -7.93484
2600328 1 141.775 211.804 181.522 0.371641 -8.48752
2598758 1 109.943 170.594 183.562 0.0587066 -5.90449
900769 1 144.849 202.495 184.854 0.251691 -8.11929
871968 1 138.675 205.539 184.914 0.6875 -8.42497
872087 1 132.443 208.628 184.71 0.143793 -7.76189
901128 1 141.67 208.758 184.748 0.0431665 -8.60377
901247 1 138.643 211.844 184.782 0.0744651 -8.84308
2629244 1 132.422 215.163 184.964 0.13628 -8.28226
2614966 1 135.632 214.98 184.928 0.119331 -8.72813
887087 1 138.61 215.121 184.781 0.0421006 -8.57774
915886 1 132.431 218.228 184.913 0.17479 -8.55825
900890 1 141.92 205.761 188.148 0.22969 -8.46978
2629129 1 145.132 208.937 188.005 0.0352792 -8.28469
2614728 1 141.892 211.849 187.938 0.297688 -8.75116
915648 1 138.798 215.148 187.868 0.0229827 -8.52509
2629366 1 132.423 218.415 187.971 0.0337 -8.45698
2629369 1 145.147 217.987 187.912 0.105467 -8.37463
2629726 1 132.429 224.535 187.951 0.095604 -8.34394
929929 1 144.956 212.133 191.269 0.0486997 -7.8626
930288 1 141.832 218.279 190.894 0.137367 -7.91416
2644245 1 132.57 228.055 190.739 0.333211 -7.48296
2657929 1 145.192 212.059 194.32 0.066993 -8.17867
2659237 1 100.868 247.319 197.363 0.328359 -6.46757
2659480 1 117.885 248.476 196.182 0.375362 -7.07543
2673531 1 148.308 242.27 199.14 0.0721321 -6.2063
595385 1 192.739 119.181 119.212 0.0355131 -6.08455
700238 1 106.52 227.804 141.352 0.0973357 -6.41812
713819 1 173.5 207.469 144.992 0.155325 -5.87043
2440139 1 176.947 160.412 146.63 0.153238 -7.28328
726661 1 179.807 163.956 147.831 0.195126 -6.60306
786039 1 111.601 213.492 160.741 0.345743 -6.15879
786160 1 114.637 216.81 160.946 0.0570666 -6.80056
828408 1 140.612 191.167 176.778 0.261363 -6.01764
2582799 1 108.458 129.108 178.952 0.0688609 -7.06196
869318 1 106.577 131.117 179.69 0.294455 -7.38437
854919 1 111.569 132.161 178.609 0.00969735 -8.14341
854920 1 114.815 132.346 178.405 0.0504903 -7.31716
869439 1 110.016 134.181 180.048 0.143769 -8.32943
869680 1 113.271 140.417 179.862 0.0847004 -7.60616
883839 1 110.002 134.448 183.067 0.139454 -7.949
884079 1 110.145 140.435 183.044 0.184389 -8.02133
900648 1 140.456 200.851 183.17 0.28923 -7.58642
872088 1 140.25 203.992 183.234 0.268794 -8.40187
886609 1 143.311 204.015 183.25 0.0407745 -8.61772
2600206 1 137.199 207.089 183.288 0.0629358 -8.37203
2614489 1 143.415 207.145 183.284 0.244668 -8.69891
2614727 1 136.948 210.399 183.124 0.141612 -8.28061
900889 1 140.193 198.106 186.349 0.033081 -7.21221
2614491 1 143.361 204.058 186.494 0.0847386 -8.6343
886724 1 127.652 210.579 186.6 0.0836815 -7.90441
2614845 1 130.827 210.354 186.609 0.235823 -8.44733
2600327 1 135.552 211.651 184.919 0.00853276 -8.42141
2629008 1 140.244 210.382 186.348 0.251882 -8.60248
901129 1 143.458 210.324 186.39 0.0388541 -8.64618
2614847 1 140.26 213.46 186.222 0.0540223 -8.85261
901365 1 134.098 216.71 186.447 0.208399 -8.59059
886967 1 137.233 216.742 186.572 0.133011 -8.52697
916005 1 130.792 219.93 186.556 0.114631 -8.12933
2629487 1 137.084 219.93 186.243 0.10318 -8.49254
901488 1 140.265 219.832 186.389 0.0949263 -8.22191
2629604 1 130.817 223.118 186.451 0.330025 -8.10229
916245 1 133.931 222.914 186.332 0.451409 -8.35053
901607 1 137.213 222.841 186.321 0.130861 -8.34725
2628889 1 143.4 210.347 189.576 0.0675938 -8.53521
915529 1 140.293 213.616 189.506 0.726251 -8.62293
915649 1 143.361 213.422 189.513 0.315322 -8.60258
915768 1 140.331 216.566 189.502 0.259825 -8.01624
915887 1 137.073 219.849 189.48 0.0673282 -7.19933
901724 1 127.774 223.324 189.555 0.141859 -7.62197
2643886 1 134.131 223.047 189.426 0.178639 -7.77201
916244 1 127.626 226.064 189.49 0.0541252 -7.63783
2615205 1 130.769 226.233 189.498 0.162427 -7.7814
2657928 1 143.357 213.511 192.74 0.07302 -8.34256
2658050 1 143.66 213.661 195.918 0.0143204 -7.63802
974560 1 111.919 245.7 202.343 0.207328 -6.36187
1001577 1 167.189 201.217 210.568 0.0303477 -6.19256
1060614 1 159.758 237.278 221.404 0.0422732 -6.01006
1047881 1 118.039 282.222 219.787 0.0611326 -6.09885
