ITEM: TIMESTEP
90000
ITEM: NUMBER OF ATOMS
89
ITEM: BOX BOUNDS pp pp pp
0 360
0 360
0 360
ITEM: ATOMS id type x y z
739494 1 159.75 126.75 153.75
769612 1 153.75 159.75 159.75
784016 1 165.75 159.75 162.75
798416 1 165.75 159.75 165.75
812096 1 165.75 141.75 168.75
812691 1 150.75 156.75 168.75
812811 1 150.75 159.75 168.75
827091 1 150.75 156.75 171.75
827332 1 153.75 162.75 171.75
829485 1 132.75 216.75 171.75
842215 1 162.75 174.75 174.75
842329 1 144.75 177.75 174.75
845323 1 126.75 252.75 174.75
856128 1 141.75 162.75 177.75
856503 1 186.75 171.75 177.75
859844 1 129.75 255.75 177.75
870168 1 141.75 153.75 180.75
870288 1 141.75 156.75 180.75
870290 1 147.75 156.75 180.75
870291 1 150.75 156.75 180.75
870410 1 147.75 159.75 180.75
870411 1 150.75 159.75 180.75
870532 1 153.75 162.75 180.75
884574 1 159.75 153.75 183.75
884691 1 150.75 156.75 183.75
884929 1 144.75 162.75 183.75
888767 1 138.75 258.75 183.75
898965 1 132.75 153.75 186.75
899329 1 144.75 162.75 186.75
899568 1 141.75 168.75 186.75
913251 1 150.75 150.75 189.75
913489 1 144.75 156.75 189.75
916719 1 114.75 237.75 189.75
916839 1 114.75 240.75 189.75
916961 1 120.75 243.75 189.75
927045 1 132.75 135.75 192.75
927535 1 162.75 147.75 192.75
928006 1 135.75 159.75 192.75
946005 1 132.75 249.75 195.75
946240 1 117.75 255.75 195.75
975283 1 126.75 261.75 201.75
985488 1 141.75 156.75 204.75
1015370 1 147.75 183.75 210.75
2453574 1 161.25 140.25 152.25
2453815 1 164.25 146.25 152.25
2498214 1 161.25 176.25 161.25
2512616 1 167.25 176.25 164.25
2526171 1 152.25 155.25 167.25
2526415 1 164.25 161.25 167.25
2526654 1 161.25 167.25 167.25
2540811 1 152.25 161.25 170.25
2541409 1 146.25 176.25 170.25
2555452 1 155.25 167.25 173.25
2569006 1 137.25 146.25 176.25
2569253 1 158.25 152.25 176.25
2569973 1 158.25 170.25 176.25
2570093 1 158.25 173.25 176.25
2572481 1 122.25 233.25 176.25
2583646 1 137.25 152.25 179.25
2584129 1 146.25 164.25 179.25
2598049 1 146.25 152.25 182.25
2598050 1 149.25 152.25 182.25
2598051 1 152.25 152.25 182.25
2598290 1 149.25 158.25 182.25
2598408 1 143.25 161.25 182.25
2601399 1 116.25 236.25 182.25
2611850 1 149.25 137.25 185.25
2612567 1 140.25 155.25 185.25
2612568 1 143.25 155.25 185.25
2613048 1 143.25 167.25 185.25
2626970 1 149.25 155.25 188.25
2627206 1 137.25 161.25 188.25
2627207 1 140.25 161.25 188.25
2627448 1 143.25 167.25 188.25
2641848 1 143.25 167.25 191.25
2642206 1 137.25 176.25 191.25
2655766 1 137.25 155.25 194.25
2669929 1 146.25 149.25 197.25
2670651 1 152.25 167.25 197.25
2670766 1 137.25 170.25 197.25
2671853 1 158.25 197.25 197.25
2671968 1 143.25 200.25 197.25
2672215 1 164.25 206.25 197.25
2673162 1 125.25 230.25 197.25
2673878 1 113.25 248.25 197.25
2684925 1 134.25 164.25 200.25
2698847 1 140.25 152.25 203.25
2699217 1 170.25 161.25 203.25
2713363 1 128.25 155.25 206.25
