ITEM: TIMESTEP
87466
ITEM: NUMBER OF ATOMS
81
ITEM: BOX BOUNDS pp pp pp
0 360
0 360
0 360
ITEM: ATOMS id type x y z
454505 1 192.75 201.75 93.75
454508 1 201.75 201.75 93.75
540427 1 198.75 189.75 111.75
540910 1 207.75 201.75 111.75
541030 1 207.75 204.75 111.75
611579 1 174.75 168.75 126.75
625615 1 162.75 159.75 129.75
654896 1 165.75 171.75 135.75
682983 1 186.75 153.75 141.75
683460 1 177.75 165.75 141.75
697009 1 144.75 144.75 144.75
698101 1 180.75 171.75 144.75
698340 1 177.75 177.75 144.75
711418 1 171.75 144.75 147.75
711538 1 171.75 147.75 147.75
712021 1 180.75 159.75 147.75
712141 1 180.75 162.75 147.75
712377 1 168.75 168.75 147.75
712501 1 180.75 171.75 147.75
725454 1 159.75 135.75 150.75
725940 1 177.75 147.75 150.75
726179 1 174.75 153.75 150.75
726299 1 174.75 156.75 150.75
726662 1 183.75 165.75 150.75
727020 1 177.75 174.75 150.75
727139 1 174.75 177.75 150.75
740215 1 162.75 144.75 153.75
740584 1 189.75 153.75 153.75
741179 1 174.75 168.75 153.75
741180 1 177.75 168.75 153.75
799497 1 168.75 186.75 165.75
872934 1 159.75 222.75 180.75
916257 1 168.75 225.75 189.75
930772 1 153.75 228.75 192.75
930894 1 159.75 231.75 192.75
959463 1 186.75 225.75 198.75
1001345 1 192.75 192.75 207.75
1030623 1 186.75 204.75 213.75
1030624 1 189.75 204.75 213.75
1045023 1 186.75 204.75 216.75
1059068 1 201.75 195.75 219.75
1059422 1 183.75 204.75 219.75
1087973 1 156.75 198.75 225.75
2226425 1 194.25 221.25 104.25
2268307 1 200.25 188.25 113.25
2297219 1 176.25 191.25 119.25
2297341 1 182.25 194.25 119.25
2353859 1 176.25 167.25 131.25
2353979 1 176.25 170.25 131.25
2410618 1 173.25 146.25 143.25
2410978 1 173.25 155.25 143.25
2411098 1 173.25 158.25 143.25
2424897 1 170.25 143.25 146.25
2425738 1 173.25 164.25 146.25
2425978 1 173.25 170.25 146.25
2425981 1 182.25 170.25 146.25
2440137 1 170.25 164.25 149.25
2440138 1 173.25 164.25 149.25
2440267 1 200.25 167.25 149.25
2440378 1 173.25 170.25 149.25
2441099 1 176.25 188.25 149.25
2452613 1 158.25 116.25 152.25
2454179 1 176.25 155.25 152.25
2454183 1 188.25 155.25 152.25
2454778 1 173.25 170.25 152.25
2454780 1 179.25 170.25 152.25
2455139 1 176.25 179.25 152.25
2468702 1 185.25 158.25 155.25
2469057 1 170.25 167.25 155.25
2469299 1 176.25 173.25 155.25
2469300 1 179.25 173.25 155.25
2469301 1 182.25 173.25 155.25
2469781 1 182.25 185.25 155.25
2483218 1 173.25 161.25 158.25
2483458 1 173.25 167.25 158.25
2497856 1 167.25 167.25 161.25
2524852 1 155.25 122.25 167.25
2615341 1 182.25 224.25 185.25
2615819 1 176.25 236.25 185.25
2671496 1 167.25 188.25 197.25
2729102 1 185.25 188.25 209.25
