ITEM: TIMESTEP
87000
ITEM: NUMBER OF ATOMS
78
ITEM: BOX BOUNDS pp pp pp
0 360
0 360
0 360
ITEM: ATOMS id type x y z
568881 1 240.75 180.75 117.75
571874 1 219.75 255.75 117.75
669399 1 114.75 174.75 138.75
683962 1 243.75 177.75 141.75
701480 1 237.75 255.75 144.75
754975 1 162.75 153.75 156.75
771054 1 159.75 195.75 159.75
771311 1 210.75 201.75 159.75
785455 1 162.75 195.75 162.75
796019 1 174.75 99.75 165.75
813784 1 189.75 183.75 168.75
813905 1 192.75 186.75 168.75
814386 1 195.75 198.75 168.75
814505 1 192.75 201.75 168.75
828185 1 192.75 183.75 171.75
828304 1 189.75 186.75 171.75
828427 1 198.75 189.75 171.75
839919 1 114.75 117.75 174.75
842584 1 189.75 183.75 174.75
842707 1 198.75 186.75 174.75
842827 1 198.75 189.75 174.75
856985 1 192.75 183.75 177.75
884931 1 150.75 162.75 183.75
885051 1 150.75 165.75 183.75
885293 1 156.75 171.75 183.75
899452 1 153.75 165.75 186.75
899572 1 153.75 168.75 186.75
899573 1 156.75 168.75 186.75
899575 1 162.75 168.75 186.75
899813 1 156.75 174.75 186.75
899927 1 138.75 177.75 186.75
913734 1 159.75 162.75 189.75
913853 1 156.75 165.75 189.75
928471 1 90.75 171.75 192.75
984175 1 162.75 123.75 204.75
986679 1 114.75 186.75 204.75
1042606 1 135.75 144.75 216.75
1042725 1 132.75 147.75 216.75
2340670 1 209.25 197.25 128.25
2353018 1 173.25 146.25 131.25
2368127 1 140.25 164.25 134.25
2382526 1 137.25 164.25 137.25
2397044 1 131.25 167.25 140.25
2424403 1 128.25 131.25 146.25
2440010 1 149.25 161.25 149.25
2458154 1 221.25 254.25 152.25
2482126 1 137.25 134.25 158.25
2541662 1 185.25 182.25 170.25
2541905 1 194.25 188.25 170.25
2542026 1 197.25 191.25 170.25
2542145 1 194.25 194.25 170.25
2542266 1 197.25 197.25 170.25
2553399 1 116.25 116.25 173.25
2556425 1 194.25 191.25 173.25
2556546 1 197.25 194.25 173.25
2570586 1 197.25 185.25 176.25
2584985 1 194.25 185.25 179.25
2585106 1 197.25 188.25 179.25
2598651 1 152.25 167.25 182.25
2598772 1 155.25 170.25 182.25
2598894 1 161.25 173.25 182.25
2612931 1 152.25 164.25 185.25
2613051 1 152.25 167.25 185.25
2613171 1 152.25 170.25 185.25
2613172 1 155.25 170.25 185.25
2613173 1 158.25 170.25 185.25
2625529 1 146.25 119.25 188.25
2625654 1 161.25 122.25 188.25
2627452 1 155.25 167.25 188.25
2627693 1 158.25 173.25 188.25
2640055 1 164.25 122.25 191.25
2642086 1 137.25 173.25 191.25
2642205 1 134.25 176.25 191.25
2701027 1 200.25 206.25 203.25
2716748 1 203.25 239.25 206.25
2726454 1 161.25 122.25 209.25
2726573 1 158.25 125.25 209.25
2844050 1 149.25 182.25 233.25
