ITEM: TIMESTEP
86000
ITEM: NUMBER OF ATOMS
84
ITEM: BOX BOUNDS pp pp pp
0 360
0 360
0 360
ITEM: ATOMS id type x y z
696773 1 156.75 138.75 144.75
697737 1 168.75 162.75 144.75
726294 1 159.75 156.75 150.75
726299 1 174.75 156.75 150.75
754613 1 156.75 144.75 156.75
755214 1 159.75 159.75 156.75
769496 1 165.75 156.75 159.75
812825 1 192.75 159.75 168.75
826986 1 195.75 153.75 171.75
841747 1 198.75 162.75 174.75
870188 1 201.75 153.75 180.75
870554 1 219.75 162.75 180.75
870672 1 213.75 165.75 180.75
870779 1 174.75 168.75 180.75
884474 1 219.75 150.75 183.75
899105 1 192.75 156.75 186.75
899109 1 204.75 156.75 186.75
899225 1 192.75 159.75 186.75
912188 1 201.75 123.75 189.75
913030 1 207.75 144.75 189.75
943503 1 186.75 186.75 195.75
956950 1 207.75 162.75 198.75
971225 1 192.75 159.75 201.75
971226 1 195.75 159.75 201.75
1016216 1 165.75 204.75 210.75
1016813 1 156.75 219.75 210.75
1030133 1 156.75 192.75 213.75
1044051 1 150.75 180.75 216.75
1044296 1 165.75 186.75 216.75
1044410 1 147.75 189.75 216.75
1044411 1 150.75 189.75 216.75
1044531 1 150.75 192.75 216.75
1044651 1 150.75 195.75 216.75
1072852 1 153.75 180.75 222.75
1073330 1 147.75 192.75 222.75
1101771 1 150.75 183.75 228.75
1101772 1 153.75 183.75 228.75
1142921 1 120.75 132.75 237.75
1143648 1 141.75 150.75 237.75
1144490 1 147.75 171.75 237.75
1145091 1 150.75 186.75 237.75
2382291 1 152.25 158.25 137.25
2453575 1 164.25 140.25 152.25
2454297 1 170.25 158.25 152.25
2468336 1 167.25 149.25 155.25
2483221 1 182.25 161.25 158.25
2497377 1 170.25 155.25 161.25
2540576 1 167.25 155.25 170.25
2555585 1 194.25 170.25 173.25
2569026 1 197.25 146.25 176.25
2569257 1 170.25 152.25 176.25
2569386 1 197.25 155.25 176.25
2569867 1 200.25 167.25 176.25
2583548 1 203.25 149.25 179.25
2597829 1 206.25 146.25 182.25
2597830 1 209.25 146.25 182.25
2598190 1 209.25 155.25 182.25
2612229 1 206.25 146.25 185.25
2612465 1 194.25 152.25 185.25
2612585 1 194.25 155.25 185.25
2612587 1 200.25 155.25 185.25
2612703 1 188.25 158.25 185.25
2612708 1 203.25 158.25 185.25
2612830 1 209.25 161.25 185.25
2627103 1 188.25 158.25 188.25
2629133 1 158.25 209.25 188.25
2641633 1 218.25 161.25 191.25
2670073 1 218.25 152.25 197.25
2670305 1 194.25 158.25 197.25
2729694 1 161.25 203.25 209.25
2743493 1 158.25 188.25 212.25
2757772 1 155.25 185.25 215.25
2758129 1 146.25 194.25 215.25
2772290 1 149.25 188.25 218.25
2772410 1 149.25 191.25 218.25
2772529 1 146.25 194.25 218.25
2772646 1 137.25 197.25 218.25
2786451 1 152.25 182.25 221.25
2787411 1 152.25 206.25 221.25
2787413 1 158.25 206.25 221.25
2800851 1 152.25 182.25 224.25
2801210 1 149.25 191.25 224.25
2829888 1 143.25 188.25 230.25
2871170 1 149.25 140.25 239.25
