ITEM: TIMESTEP
87000
ITEM: NUMBER OF ATOMS
58
ITEM: BOX BOUNDS pp pp pp
0 360
0 360
0 360
ITEM: ATOMS id type x y z
697009 1 144.75 144.75 144.75
711409 1 144.75 144.75 147.75
869207 1 138.75 129.75 180.75
899219 1 174.75 159.75 186.75
928138 1 171.75 162.75 192.75
928139 1 174.75 162.75 192.75
928141 1 180.75 162.75 192.75
928620 1 177.75 174.75 192.75
929098 1 171.75 186.75 192.75
929342 1 183.75 192.75 192.75
942538 1 171.75 162.75 195.75
942539 1 174.75 162.75 195.75
942783 1 186.75 168.75 195.75
943377 1 168.75 183.75 195.75
943743 1 186.75 192.75 195.75
956202 1 123.75 144.75 198.75
956582 1 183.75 153.75 198.75
956693 1 156.75 156.75 198.75
958140 1 177.75 192.75 198.75
958141 1 180.75 192.75 198.75
970132 1 153.75 132.75 201.75
970863 1 186.75 150.75 201.75
971091 1 150.75 156.75 201.75
971457 1 168.75 165.75 201.75
971584 1 189.75 168.75 201.75
971815 1 162.75 174.75 201.75
972540 1 177.75 192.75 201.75
986698 1 171.75 186.75 204.75
986939 1 174.75 192.75 204.75
999055 1 162.75 135.75 207.75
1000265 1 192.75 165.75 207.75
1000979 1 174.75 183.75 207.75
1001339 1 174.75 192.75 207.75
1029538 1 171.75 177.75 213.75
1029650 1 147.75 180.75 213.75
1041526 1 135.75 117.75 216.75
1041648 1 141.75 120.75 216.75
1041649 1 144.75 120.75 216.75
1042612 1 153.75 144.75 216.75
1042971 1 150.75 153.75 216.75
1128766 1 135.75 138.75 234.75
2424769 1 146.25 140.25 146.25
2555326 1 137.25 164.25 173.25
2584246 1 137.25 167.25 179.25
2598168 1 143.25 155.25 182.25
2598288 1 143.25 158.25 182.25
2640762 1 125.25 140.25 191.25
2654092 1 155.25 113.25 194.25
2656261 1 182.25 167.25 194.25
2656984 1 191.25 185.25 194.25
2669935 1 164.25 149.25 197.25
2670538 1 173.25 164.25 197.25
2700171 1 152.25 185.25 203.25
2726330 1 149.25 119.25 209.25
2726687 1 140.25 128.25 209.25
2755960 1 119.25 140.25 215.25
2757416 1 167.25 176.25 215.25
2813086 1 137.25 128.25 227.25
