ITEM: TIMESTEP
95584
ITEM: NUMBER OF ATOMS
73
ITEM: BOX BOUNDS pp pp pp
0 360
0 360
0 360
ITEM: ATOMS id type x y z c_myKE c_myPE
2281025 1 194.205 143.178 111.243 0 -6.25704
2380260 1 180.109 103.611 133.625 0 -7.72357
2365982 1 184.783 104.99 132.18 0 -7.4527
2380262 1 184.455 101.648 135.53 0 -7.32195
2394660 1 180.158 103.8 136.769 0 -8.0161
2394779 1 177.038 106.941 136.876 0 -7.39433
2410023 1 189.791 127.106 141.925 0 -6.83028
713222 1 184.525 189.79 148.309 0 -6.82586
768179 1 170.475 119.69 157.82 0 -7.3443
2509741 1 183.372 100.473 162.326 0 -6.82822
2510696 1 167.5 122.58 160.893 0 -7.27195
2498203 1 128.831 177.317 162.062 0 -7.20955
770682 1 120.153 187.982 160.772 0 -7.55346
2498800 1 117.631 191.283 161.13 0 -6.68889
2509740 1 180.102 100.564 165.579 0 -6.53248
798883 1 132.164 174.613 165.915 0 -8.03993
2527245 1 128.667 180.645 165.233 0 -8.19464
785203 1 123.911 182.973 164.055 0 -8.24766
799479 1 116.214 186.696 165.546 0 -6.82743
799725 1 125.73 186.703 165.879 0 -8.24739
2527518 1 237.624 189.77 165.488 0 -6.25435
2512724 1 132.115 176.467 167.694 0 -8.08156
2554957 1 106.754 152.834 171.732 0 -7.08416
2555194 1 97.3426 159.133 171.853 0 -6.97232
2555315 1 100.406 162.206 171.876 0 -6.98162
856115 1 97.1657 162.211 175.218 0 -6.6557
2583263 1 60.3048 141.802 180.297 0 -6.57842
2583382 1 57.059 145.084 180.141 0 -6.81987
2610660 1 178.234 101.573 184.62 0 -6.8291
2669775 1 34.7091 143.15 197.372 0 -6.25605
2699202 1 122.784 161.053 202.535 0 -6.25609
2725024 1 192.955 79.3684 212.087 0 -6.25455
2728499 1 175.073 173.825 212.101 0 -6.25509
2798059 1 47.4675 108.059 228.019 0 -6.25527
466979 1 175.411 153.079 90.523 0 -6.25417
641443 1 122.422 197.743 128.793 0 -6.25419
652140 1 178.446 98.7262 131.92 0 -6.59321
652261 1 181.749 102 131.925 0 -7.86852
666780 1 178.535 105.371 135.286 0 -7.72227
681180 1 178.512 105.225 138.45 0 -7.50589
682023 1 188.02 125.528 140.152 0 -6.5439
683798 1 106.481 175.402 140.311 0 -6.25902
727502 1 182.941 188.02 146.538 0 -6.54324
767936 1 168.861 117.954 159.203 0 -7.56186
782098 1 172.122 118.061 159.328 0 -7.63134
770323 1 130.584 175.027 160.699 0 -8.25307
770086 1 133.838 178.298 160.717 0 -8.21686
799364 1 127.551 183.144 160.203 0 -7.95754
770684 1 124.082 186.672 160.404 0 -7.70337
796618 1 172.153 115.026 162.709 0 -7.37653
782339 1 171.964 117.88 162.533 0 -7.72064
2495818 1 175.324 117.712 162.44 0 -7.28019
767937 1 169.235 121.248 162.552 0 -7.94513
2510335 1 166.074 124.368 162.516 0 -7.10596
2498205 1 130.449 172.962 162.377 0 -7.82885
2498444 1 131.421 183.518 163.752 0 -7.99509
2498206 1 133.464 181.696 163.852 0 -8.15407
770687 1 127.537 185.028 162.113 0 -8.27468
2484403 1 124.115 188.569 162.264 0 -7.98302
796858 1 168.813 124.169 165.955 0 -7.27438
828043 1 124.317 178.967 166.794 0 -7.67178
799125 1 128.299 178.092 165.923 0 -8.1648
811454 1 33.1115 122.411 169.005 0 -6.25507
827807 1 130.538 179.85 169.551 0 -7.86853
2527005 1 127.157 183.399 169.339 0 -7.23601
841358 1 108.285 151.176 173.24 0 -6.83614
827078 1 109.732 153.067 172.027 0 -6.81612
854465 1 194.583 118.012 176.672 0 -6.25609
897061 1 180.005 99.9908 186.389 0 -6.54368
912620 1 51.0052 133.935 191.347 0 -6.25996
958024 1 191.373 189.426 200.937 0 -6.25521
1041148 1 73.3393 105.225 220.049 0 -6.25569
1086498 1 42.6852 160.692 229.624 0 -6.25477
