ITEM: TIMESTEP
92000
ITEM: NUMBER OF ATOMS
86
ITEM: BOX BOUNDS pp pp pp
0 360
0 360
0 360
ITEM: ATOMS id type x y z c_myKE c_myPE
2010535 1 164.227 226.074 50.6653 0 -6.25466
2197500 1 180.11 219.599 92.1788 0 -6.86696
2197619 1 176.907 222.932 92.0466 0 -6.56042
498060 1 180.088 211.978 100.55 0 -8.20082
2226059 1 176.798 215.124 100.36 0 -7.59621
2226060 1 180.016 215.107 100.383 0 -8.1307
2240339 1 176.925 212.009 103.753 0 -8.00395
2254739 1 176.885 211.893 106.815 0 -7.28186
2342701 1 181.422 251.566 123.949 0 -6.81576
2371956 1 103.628 266.285 130.415 0 -6.25491
2428503 1 187.976 237.515 144.982 0 -6.69572
742854 1 159.088 212.053 149.607 0 -6.2641
714903 1 183.225 232.514 149.762 0 -8.58743
2457302 1 183.253 235.568 149.713 0 -8.45204
2469173 1 159.046 170.406 151.6 0 -7.88683
741533 1 154.461 175.044 152.836 0 -6.97786
2471340 1 180.072 229.315 152.79 0 -8.41837
714662 1 183.216 229.39 152.934 0 -8.79607
743701 1 183.24 232.521 152.878 0 -8.8185
2486102 1 186.416 235.739 152.85 0 -8.36186
2469171 1 156.08 170.53 154.497 0 -8.16222
2469414 1 159.318 170.47 154.631 0 -8.59345
2483694 1 160.953 172.031 156.146 0 -8.49143
2483695 1 164.122 172.015 156.121 0 -7.75849
741295 1 162.383 173.786 154.653 0 -8.14365
2471101 1 180.229 226.05 156.052 0 -7.57575
2500501 1 183.221 229.389 156.055 0 -8.77666
743703 1 186.389 232.573 156.056 0 -8.78496
755574 1 159.296 167.343 157.902 0 -7.48078
755815 1 160.948 171.967 159.322 0 -7.76363
772381 1 183.372 229.357 159.215 0 -8.33607
757981 1 186.464 232.484 159.163 0 -8.56866
2511766 1 135.554 152.586 162.313 0 -6.83171
2588349 1 208.86 275.947 178.293 0 -6.86079
2587623 1 186.625 258.057 180.128 0 -7.05572
2602748 1 205.446 275.715 181.423 0 -6.70835
2644021 1 183.387 222.861 192.979 0 -6.25498
2671602 1 120.805 190.989 197.421 0 -6.25492
2674388 1 203.774 267.495 197.592 0 -6.94655
2684445 1 133.577 151.456 200.605 0 -6.25475
2861597 1 234.41 264.216 240.794 0 -6.82389
439736 1 165.787 195.69 86.0661 0 -6.26493
498061 1 181.777 213.504 98.8915 0 -7.31015
498180 1 178.417 216.826 98.8091 0 -7.2079
512340 1 178.445 210.471 102.107 0 -8.11768
512460 1 178.455 213.635 102.053 0 -8.45333
526740 1 178.604 210.349 105.219 0 -7.87963
512341 1 181.692 210.243 105.024 0 -7.27173
629222 1 183.192 253.338 122.359 0 -6.54272
628011 1 147.939 223.212 125.662 0 -6.25818
642069 1 205.455 213.59 128.772 0 -6.25317
700381 1 183.217 232.641 143.807 0 -6.86443
714406 1 131.977 221.286 146.737 0 -6.25431
714661 1 181.693 230.857 148.17 0 -8.3902
714782 1 184.758 237.068 148.106 0 -7.77655
2468931 1 154.29 168.929 149.965 0 -6.74051
727025 1 192.621 175.343 149.928 0 -6.25953
2471461 1 178.561 230.876 151.175 0 -8.02432
2442782 1 181.67 230.92 151.304 0 -8.75692
743821 1 184.83 234.104 151.354 0 -8.76352
2471702 1 184.842 237.255 151.165 0 -8.4023
755694 1 160.835 172.121 152.986 0 -8.30558
743342 1 181.669 227.745 154.418 0 -8.55892
2471582 1 184.794 230.988 154.514 0 -8.81899
2457061 1 184.837 234.123 154.416 0 -8.81444
758102 1 187.984 234.136 154.51 0 -8.52675
2483693 1 157.716 168.842 156.131 0 -8.04956
2497974 1 160.895 168.869 156.192 0 -8.34085
757861 1 181.777 227.759 157.625 0 -8.26956
2485861 1 184.826 230.97 157.615 0 -8.75109
772501 1 187.911 234.186 157.636 0 -8.46525
2500622 1 188.163 237.092 157.592 0 -7.66311
772261 1 184.882 230.967 160.808 0 -7.92229
772264 1 188.151 234.141 160.571 0 -7.60026
798166 1 133.781 151.003 164.082 0 -6.54483
784966 1 133.877 184.988 162.715 0 -6.25802
2545610 1 144.738 290.225 170.278 0 -6.25288
872449 1 141.537 213.66 179.894 0 -6.25679
874143 1 184.832 256.262 178.602 0 -6.92795
902941 1 184.869 256.574 181.862 0 -6.77774
888906 1 195.773 265.943 181.87 0 -6.30762
889269 1 207.306 277.497 182.861 0 -7.04055
2674509 1 204.168 267.957 194.989 0 -7.20539
2674510 1 207.598 269.448 197.498 0 -7.37563
975429 1 204.306 271.932 198.914 0 -7.10864
1133597 1 232.64 262.634 239.025 0 -6.53915
