ITEM: TIMESTEP
89000
ITEM: NUMBER OF ATOMS
110
ITEM: BOX BOUNDS pp pp pp
0 360
0 360
0 360
ITEM: ATOMS id type x y z c_myKE c_myPE
2483576 1 165.522 167.494 155.236 0.321411 -6.71526
2500018 1 174.951 224.655 158.833 0.0659962 -6.5039
2526640 1 114.535 167.54 165.179 0.173068 -6.35619
2526277 1 104.61 156.056 166.965 0.108096 -6.43377
2554130 1 148.078 132.233 171.634 0.199957 -6.79692
2585215 1 160.866 191.308 175.042 0.0576057 -7.0268
943250 1 147.917 179.994 196.859 0.0624685 -7.58237
1072611 1 149.6 178.456 222.967 0.162311 -7.6058
1043930 1 144.87 180.061 221.528 0.0405413 -8.16666
1058448 1 138.559 183.221 221.468 0.0782882 -7.71918
1044288 1 135.435 186.556 221.474 0.0427365 -7.57488
2786448 1 143.245 181.622 226.057 0.14377 -8.56423
1072968 1 141.817 183.302 224.49 0.166078 -8.59388
1087606 1 133.699 187.932 226.278 0.278387 -8.4264
1073326 1 133.632 190.957 226.195 0.0541125 -8.30036
2801325 1 130.441 194.501 226.178 0.286923 -7.72232
2800730 1 148.233 176.945 227.612 0.263273 -7.68868
2800727 1 138.636 180.13 227.759 0.182563 -8.26397
2815248 1 143.154 181.733 229.211 0.17303 -8.45776
2815367 1 136.855 184.864 229.436 0.408945 -8.68378
2800967 1 138.45 183.44 227.962 0.101191 -8.51931
2815486 1 133.61 188 229.287 0.157607 -8.67796
1073087 1 136.841 188.124 229.1 0.192054 -8.37813
2829767 1 137.063 184.781 232.38 0.00944029 -8.49346
2829768 1 140.209 184.982 232.337 0.118327 -8.44589
2830005 1 130.635 191.183 232.5 0.121584 -8.47022
2830006 1 133.766 191.164 232.453 0.0920762 -8.80911
2830124 1 127.462 194.387 232.438 0.0842819 -8.35137
2830125 1 130.503 194.302 232.39 0.147645 -8.5809
2827858 1 175.06 132.175 235.786 0.134749 -6.43576
2844405 1 130.536 191.055 235.614 0.0304498 -8.51254
2830127 1 136.943 191.198 235.653 0.000293471 -8.56065
1145087 1 133.809 187.993 238.727 0.219629 -8.47307
2872965 1 130.418 184.964 241.857 0.0928514 -7.65631
2869487 1 138.642 93.9986 243.992 0.359432 -7.07903
2928293 1 157.624 127.12 258.01 0.0860783 -6.34452
3015174 1 159.135 138.619 275.69 0.0157154 0
668326 1 134.051 146.986 133.746 0.0174101 -6.72234
826131 1 149.757 130.797 170.079 0.265206 -6.79264
826239 1 109.612 130.803 172.047 0.0190718 -6.2066
2554132 1 151.468 131.752 172.167 0.207509 -7.38799
841008 1 138.26 141.322 175.152 0.0176271 -6.85668
2585214 1 157.4 194.363 176.632 0.062618 -7.80295
857215 1 157.425 192.584 178.553 0.142284 -7.2924
857334 1 159.26 194.511 178.37 0.00282111 -7.17582
2671011 1 147.997 178.175 198.705 0.242586 -8.10299
928972 1 149.735 183.54 198.74 0.358474 -8.2478
957659 1 175.52 181.568 198.417 0.110376 -7.15271
957780 1 178.615 184.937 198.649 0.25 -7.68027
957409 1 146.228 176.334 202.128 0.198792 -7.85581
957770 1 144.515 178.608 202.235 0.252932 -7.94165
943253 1 153.294 183.317 202.343 0.162434 -7.85185
957771 1 149.766 185.448 200.528 0.255844 -8.14006
972179 1 175.538 185.03 202.058 0.101531 -6.97128
984902 1 183.161 140.228 205.162 0.127334 -7.23577
2728488 1 143.198 175.233 205.319 0.180438 -6.69016
2671249 1 146.25 178.36 204.314 0.247304 -7.94378
2785135 1 160.685 150.889 221.285 0.261863 -6.63432
1029528 1 140.181 178.492 220.018 0.0441899 -7.96654
1029650 1 144.918 182.913 221.349 0.333889 -8.0581
2785255 1 156.048 149.699 223.206 0.447884 -7.39378
1071776 1 160.783 154.517 224.664 0.0773387 -7.48078
2786329 1 148.189 176.637 224.697 0.0195953 -7.74179
1058450 1 144.994 179.898 224.639 0.0227103 -8.72088
2771930 1 146.663 178.543 222.938 0.235101 -8.03076
2801087 1 135.227 186.461 224.578 0.188819 -8.47449
1058688 1 138.542 186.507 224.458 0.144964 -8.26874
1086053 1 157.672 147.888 227.804 0.16536 -6.43343
2813934 1 160.856 150.972 227.782 0.205251 -6.50701
1071774 1 156.293 152.792 226.577 0.286871 -7.30875
1072849 1 143.454 178.451 226.281 0.279999 -8.30243
1072850 1 148.028 180.175 227.426 0.0325512 -8.12207
1087249 1 141.655 183.341 227.618 0.454462 -8.30201
2786686 1 138.428 186.527 227.526 0.116107 -8.73935
1058570 1 141.597 186.502 227.678 0.23128 -8.67506
2815485 1 131.993 189.617 227.755 0.318369 -8.47135
1087725 1 129.141 192.642 227.756 0.0331961 -8.02705
1087726 1 131.946 192.627 227.72 0.0781798 -8.19063
1100467 1 199.081 149.852 230.962 0.233259 -6.31808
1101649 1 141.627 179.99 230.744 0.00406789 -7.68015
2829531 1 147.895 179.849 230.621 0.118157 -7.3746
1101887 1 135.262 186.491 230.977 0.0756474 -8.72688
1102126 1 132.059 192.727 230.951 0.2106 -8.62924
1102245 1 128.968 196.058 230.794 0.260624 -7.90804
1099859 1 175.32 131.967 232.647 0.0145449 -6.45522
1116168 1 138.601 183.274 233.877 0.615961 -8.19333
1116287 1 135.478 186.384 233.946 0.07479 -8.48234
1116406 1 132.113 189.493 234.183 0.0367977 -8.75456
1116524 1 125.924 192.719 233.967 0.0658069 -7.3095
1116525 1 129.075 192.764 233.973 0.120486 -8.68875
1129967 1 137.274 167.261 237.475 0.0131639 -5.82526
1130567 1 135.333 183.328 237.241 0.160969 -8.45728
1130687 1 135.422 186.495 237.144 0.0742544 -8.75232
1130688 1 138.622 186.497 237.183 0.1636 -8.50827
1130806 1 132.351 189.558 237.199 0.519009 -8.53534
1130807 1 135.211 189.691 237.104 0.0365891 -8.75062
2844524 1 128.874 192.932 237.294 0.436731 -7.46558
1144967 1 135.304 183.315 240.462 0.0295207 -8.04946
1144968 1 138.258 183.078 240.487 0.0388748 -7.52773
1145086 1 132.067 186.603 240.382 0.139837 -8.48351
2873087 1 135.275 186.374 240.212 0.241608 -8.6
1159366 1 132.237 183.367 243.39 0.145411 -7.75879
1159487 1 135.294 186.391 243.389 0.0909528 -8.15321
1171141 1 181.765 114.642 247.122 0.296232 -6.55141
1173766 1 131.842 183.257 246.539 0.241461 -7.66558
2928175 1 160.901 124.539 258.079 0.00545916 -6.21403
1233658 1 172.373 243.88 259.666 0.0675847 -5.88913
1260654 1 159.196 197.713 266.14 0.109964 -6.86658
1274934 1 159.447 194.792 269.34 0.152137 -6.02511
1301695 1 160.539 140.277 277.338 0.107145 -7.30522
