ITEM: TIMESTEP
91185
ITEM: NUMBER OF ATOMS
49
ITEM: BOX BOUNDS pp pp pp
0 360
0 360
0 360
ITEM: ATOMS id type x y z
495539 1 174.75 147.75 102.75
509819 1 174.75 144.75 105.75
509940 1 177.75 147.75 105.75
524220 1 177.75 144.75 108.75
539003 1 246.75 153.75 111.75
553404 1 249.75 153.75 114.75
643649 1 264.75 249.75 132.75
668705 1 192.75 156.75 138.75
671488 1 261.75 225.75 138.75
683105 1 192.75 156.75 141.75
683106 1 195.75 156.75 141.75
683225 1 192.75 159.75 141.75
697747 1 198.75 162.75 144.75
797095 1 162.75 126.75 165.75
811616 1 165.75 129.75 168.75
811737 1 168.75 132.75 168.75
842002 1 243.75 168.75 174.75
871520 1 237.75 186.75 180.75
911828 1 201.75 114.75 189.75
954315 1 222.75 96.75 198.75
1027743 1 186.75 132.75 213.75
2194863 1 188.25 152.25 98.25
2223419 1 176.25 146.25 104.25
2223539 1 176.25 149.25 104.25
2237699 1 176.25 143.25 107.25
2237819 1 176.25 146.25 107.25
2237820 1 179.25 146.25 107.25
2251980 1 179.25 140.25 110.25
2252099 1 176.25 143.25 110.25
2383388 1 203.25 185.25 137.25
2396585 1 194.25 155.25 140.25
2396704 1 191.25 158.25 140.25
2411105 1 194.25 158.25 143.25
2411106 1 197.25 158.25 143.25
2411225 1 194.25 161.25 143.25
2425505 1 194.25 158.25 146.25
2456342 1 185.25 209.25 152.25
2510695 1 164.25 128.25 164.25
2524974 1 161.25 125.25 167.25
2525095 1 164.25 128.25 167.25
2525096 1 167.25 128.25 167.25
2525216 1 167.25 131.25 167.25
2525217 1 170.25 131.25 167.25
2527276 1 227.25 182.25 167.25
2527397 1 230.25 185.25 167.25
2582575 1 164.25 125.25 179.25
2585000 1 239.25 185.25 179.25
2585120 1 239.25 188.25 179.25
2685545 1 194.25 179.25 200.25
