ITEM: TIMESTEP
89000
ITEM: NUMBER OF ATOMS
63
ITEM: BOX BOUNDS pp pp pp
0 360
0 360
0 360
ITEM: ATOMS id type x y z
525523 1 126.75 177.75 108.75
525643 1 126.75 180.75 108.75
625354 1 99.75 153.75 129.75
743451 1 150.75 225.75 153.75
754859 1 174.75 150.75 156.75
754978 1 171.75 153.75 156.75
769379 1 174.75 153.75 159.75
771292 1 153.75 201.75 159.75
802396 1 225.75 258.75 165.75
812813 1 156.75 159.75 168.75
813053 1 156.75 165.75 168.75
827453 1 156.75 165.75 171.75
827573 1 156.75 168.75 171.75
827694 1 159.75 171.75 171.75
840675 1 222.75 135.75 174.75
841973 1 156.75 168.75 174.75
841975 1 162.75 168.75 174.75
842093 1 156.75 171.75 174.75
842094 1 159.75 171.75 174.75
842095 1 162.75 171.75 174.75
842215 1 162.75 174.75 174.75
856495 1 162.75 171.75 177.75
856614 1 159.75 174.75 177.75
856615 1 162.75 174.75 177.75
857827 1 198.75 204.75 177.75
859270 1 207.75 240.75 177.75
870895 1 162.75 171.75 180.75
871015 1 162.75 174.75 180.75
873670 1 207.75 240.75 180.75
885295 1 162.75 171.75 183.75
885414 1 159.75 174.75 183.75
885415 1 162.75 174.75 183.75
899694 1 159.75 171.75 186.75
899696 1 165.75 171.75 186.75
899814 1 159.75 174.75 186.75
899815 1 162.75 174.75 186.75
899816 1 165.75 174.75 186.75
960306 1 195.75 246.75 198.75
971931 1 150.75 177.75 201.75
972050 1 147.75 180.75 201.75
985977 1 168.75 168.75 204.75
1043452 1 153.75 165.75 216.75
2253523 1 128.25 179.25 110.25
2281972 1 155.25 170.25 116.25
2500603 1 128.25 236.25 161.25
2526412 1 155.25 161.25 167.25
2526532 1 155.25 164.25 167.25
2526652 1 155.25 167.25 167.25
2540932 1 155.25 164.25 170.25
2541172 1 155.25 170.25 170.25
2555332 1 155.25 164.25 173.25
2555574 1 161.25 170.25 173.25
2569974 1 161.25 170.25 176.25
2613175 1 164.25 170.25 185.25
2613414 1 161.25 176.25 185.25
2642215 1 164.25 176.25 191.25
2714590 1 209.25 185.25 206.25
2730548 1 203.25 224.25 209.25
2787071 1 212.25 197.25 221.25
2788621 1 182.25 236.25 221.25
2830497 1 170.25 203.25 230.25
2873474 1 221.25 197.25 239.25
2903351 1 212.25 224.25 245.25
