ITEM: TIMESTEP
89469
ITEM: NUMBER OF ATOMS
63
ITEM: BOX BOUNDS pp pp pp
0 360
0 360
0 360
ITEM: ATOMS id type x y z
711767 1 138.75 153.75 147.75
740928 1 141.75 162.75 153.75
741047 1 138.75 165.75 153.75
741048 1 141.75 165.75 153.75
741167 1 138.75 168.75 153.75
741168 1 141.75 168.75 153.75
755443 1 126.75 165.75 156.75
756168 1 141.75 183.75 156.75
769726 1 135.75 162.75 159.75
769964 1 129.75 168.75 159.75
769966 1 135.75 168.75 159.75
801180 1 177.75 228.75 165.75
812803 1 126.75 159.75 168.75
813165 1 132.75 168.75 168.75
815343 1 186.75 222.75 168.75
815575 1 162.75 228.75 168.75
886976 1 165.75 213.75 183.75
887931 1 150.75 237.75 183.75
901137 1 168.75 207.75 186.75
915418 1 171.75 204.75 189.75
916265 1 192.75 225.75 189.75
944574 1 159.75 213.75 195.75
958867 1 198.75 210.75 198.75
959217 1 168.75 219.75 198.75
986952 1 213.75 192.75 204.75
1001823 1 186.75 204.75 207.75
1002063 1 186.75 210.75 207.75
1015496 1 165.75 186.75 210.75
2325641 1 122.25 182.25 125.25
2382525 1 134.25 164.25 137.25
2411566 1 137.25 170.25 143.25
2440486 1 137.25 173.25 149.25
2454525 1 134.25 164.25 152.25
2454767 1 140.25 170.25 152.25
2468924 1 131.25 164.25 155.25
2469047 1 140.25 167.25 155.25
2469167 1 140.25 170.25 155.25
2469403 1 128.25 176.25 155.25
2469408 1 143.25 176.25 155.25
2483210 1 149.25 161.25 158.25
2483446 1 137.25 167.25 158.25
2497608 1 143.25 161.25 161.25
2497726 1 137.25 164.25 161.25
2497846 1 137.25 167.25 161.25
2498327 1 140.25 179.25 161.25
2500976 1 167.25 245.25 161.25
2543699 1 176.25 233.25 170.25
2555565 1 134.25 170.25 173.25
2586539 1 176.25 224.25 179.25
2598177 1 170.25 155.25 182.25
2629384 1 191.25 215.25 188.25
2643171 1 152.25 200.25 191.25
2644744 1 191.25 239.25 191.25
2671742 1 185.25 194.25 197.25
2672820 1 179.25 221.25 197.25
2685191 1 212.25 170.25 200.25
2686985 1 194.25 215.25 200.25
2700663 1 188.25 197.25 203.25
2701015 1 164.25 206.25 203.25
2701385 1 194.25 215.25 203.25
2715652 1 155.25 212.25 206.25
2730186 1 197.25 215.25 209.25
2744222 1 185.25 206.25 212.25
