ITEM: TIMESTEP
96315
ITEM: NUMBER OF ATOMS
42
ITEM: BOX BOUNDS pp pp pp
0 360
0 360
0 360
ITEM: ATOMS id type x y z
611933 1 156.75 177.75 126.75
613627 1 198.75 219.75 126.75
727387 1 198.75 183.75 150.75
727508 1 201.75 186.75 150.75
728481 1 240.75 210.75 150.75
741788 1 201.75 183.75 153.75
771783 1 186.75 213.75 159.75
771902 1 183.75 216.75 159.75
774518 1 111.75 282.75 159.75
786182 1 183.75 213.75 162.75
812210 1 147.75 144.75 168.75
814761 1 240.75 207.75 168.75
828048 1 141.75 180.75 171.75
829160 1 237.75 207.75 171.75
829161 1 240.75 207.75 171.75
829162 1 243.75 207.75 171.75
829280 1 237.75 210.75 171.75
829281 1 240.75 210.75 171.75
829282 1 243.75 210.75 171.75
842328 1 141.75 177.75 174.75
843442 1 243.75 204.75 174.75
843680 1 237.75 210.75 174.75
859515 1 222.75 246.75 177.75
861046 1 135.75 285.75 177.75
874739 1 174.75 267.75 180.75
914594 1 219.75 183.75 189.75
959449 1 144.75 225.75 198.75
1030614 1 159.75 204.75 213.75
2339933 1 158.25 179.25 128.25
2356845 1 134.25 242.25 131.25
2440986 1 197.25 185.25 149.25
2441107 1 200.25 188.25 149.25
2443265 1 194.25 242.25 149.25
2473723 1 128.25 284.25 155.25
2482631 1 212.25 146.25 158.25
2541647 1 140.25 182.25 170.25
2557041 1 242.25 206.25 173.25
2557282 1 245.25 212.25 173.25
2571440 1 239.25 206.25 176.25
2586174 1 161.25 215.25 179.25
2744709 1 206.25 218.25 212.25
2744830 1 209.25 221.25 212.25
