ITEM: TIMESTEP
87239
ITEM: NUMBER OF ATOMS
59
ITEM: BOX BOUNDS pp pp pp
0 360
0 360
0 360
ITEM: ATOMS id type x y z
683819 1 174.75 174.75 141.75
697009 1 144.75 144.75 144.75
711538 1 171.75 147.75 147.75
727613 1 156.75 189.75 150.75
740093 1 156.75 141.75 153.75
742378 1 171.75 198.75 153.75
771060 1 177.75 195.75 159.75
772612 1 153.75 234.75 159.75
783541 1 180.75 147.75 162.75
813652 1 153.75 180.75 168.75
826504 1 189.75 141.75 171.75
827591 1 210.75 168.75 171.75
828773 1 156.75 198.75 171.75
840542 1 183.75 132.75 174.75
840667 1 198.75 135.75 174.75
841141 1 180.75 147.75 174.75
841629 1 204.75 159.75 174.75
856269 1 204.75 165.75 177.75
856270 1 207.75 165.75 177.75
869463 1 186.75 135.75 180.75
869829 1 204.75 144.75 180.75
869944 1 189.75 147.75 180.75
871274 1 219.75 180.75 180.75
873287 1 138.75 231.75 180.75
883864 1 189.75 135.75 183.75
883865 1 192.75 135.75 183.75
898986 1 195.75 153.75 186.75
900429 1 204.75 189.75 186.75
926708 1 201.75 126.75 192.75
2425025 1 194.25 146.25 146.25
2470380 1 179.25 200.25 155.25
2482502 1 185.25 143.25 158.25
2482978 1 173.25 155.25 158.25
2512029 1 206.25 161.25 164.25
2525943 1 188.25 149.25 167.25
2526063 1 188.25 152.25 167.25
2539985 1 194.25 140.25 170.25
2540102 1 185.25 143.25 170.25
2540819 1 176.25 161.25 170.25
2541778 1 173.25 185.25 170.25
2542133 1 158.25 194.25 170.25
2554617 1 170.25 146.25 173.25
2554622 1 185.25 146.25 173.25
2554742 1 185.25 149.25 173.25
2554746 1 197.25 149.25 173.25
2555470 1 209.25 167.25 173.25
2568303 1 188.25 128.25 176.25
2568783 1 188.25 140.25 176.25
2583189 1 206.25 140.25 179.25
2596863 1 188.25 122.25 182.25
2597224 1 191.25 131.25 182.25
2610900 1 179.25 113.25 185.25
2612710 1 209.25 158.25 185.25
2613309 1 206.25 173.25 185.25
2640060 1 179.25 122.25 191.25
2641149 1 206.25 149.25 191.25
2654467 1 200.25 122.25 194.25
2656993 1 218.25 185.25 194.25
2698148 1 203.25 134.25 203.25
