ITEM: TIMESTEP
87000
ITEM: NUMBER OF ATOMS
79
ITEM: BOX BOUNDS pp pp pp
0 360
0 360
0 360
ITEM: ATOMS id type x y z c_myKE c_myPE
2295640 1 114.189 149.779 116.418 0.169618 -6.98124
2353251 1 151.757 150 127.172 0.0133138 -6.7825
2426934 1 160.871 196.475 143.098 0.0847166 -6.60807
2425132 1 155.09 149.803 145.269 0.38405 -6.91488
2439533 1 158.14 148.353 147.96 0.0439665 -7.42639
2509369 1 145.177 90.9979 162.986 0.0161888 -7.22646
2523889 1 145.124 93.8565 165.507 0.00631674 -7.39912
2496530 1 145.798 132.35 165.68 0.072827 -6.5534
824808 1 141.774 93.8893 168.874 0.249617 -8.10096
824806 1 138.693 96.9266 171.958 0.0811891 -7.92586
2567208 1 142.08 91.0058 175.173 0.24131 -6.66315
839326 1 138.802 97.4579 175.32 0.0108351 -7.61759
2553046 1 135.486 100.645 175.325 0.0842393 -7.58134
867873 1 90.6986 89.2127 176.92 0.317091 -6.59362
2581472 1 92.3099 90.9364 178.279 0.163349 -6.85981
853491 1 146.482 89.1115 180.278 0.00813184 -6.62597
883008 1 141.945 110.106 180.697 0.271968 -6.7078
870762 1 119.915 165.014 179.976 0.32307 0
2610770 1 148.248 106.529 184.184 0.282722 -7.06096
2612432 1 89.2347 151.694 186.876 0.143289 -6.41466
2629257 1 171.295 213.828 187.367 0.191392 -6.98305
2629139 1 175.14 212.158 188.017 0.0986515 -6.99123
914577 1 164.05 184.824 191.023 0.111819 -7.97286
2642577 1 167.421 184.777 191.042 0.0383456 -7.60208
2628177 1 169.031 186.383 189.788 0.287202 -8.29459
2642698 1 170.596 188.027 191.123 0.22064 -8.25874
2628299 1 173.817 188.038 190.951 0.228476 -7.98515
2613898 1 171.974 189.799 189.4 0.187664 -7.83912
2628421 1 183.415 191.208 189.634 0.00232295 -6.23067
2643435 1 227.912 207.1 191.12 0.237183 -6.29263
885658 1 167.501 181.679 194.09 0.136839 -7.00494
2656855 1 164.461 184.566 194.052 0.0834143 -7.60758
2667414 1 158.977 79.5625 199.572 0.0651984 -7.25684
2672830 1 212.177 222.837 199.339 0.0265789 -5.89529
2681813 1 155.975 79.3612 202.503 0.105381 -6.77065
2697516 1 104.027 114.722 205.56 0.0646377 -6.62699
2711796 1 103.798 111.433 208.943 0.406899 -6.91003
2741934 1 160.952 148.342 219.864 0.0737724 -7.36051
2799536 1 164.456 148.673 223.321 0.0577858 -6.74054
2813806 1 135.994 146.537 232.73 0.0145529 -6.38079
2842379 1 175.443 136.747 237.875 0.307262 -6.29518
2856778 1 172.137 136.933 240.87 0.0681168 -6.93212
726053 1 156.438 149.891 149.324 0.0690538 -6.3479
742019 1 173.268 189.55 151.429 0.214359 -6.02085
781368 1 140.621 89.3301 160.751 0.192014 -7.31852
795649 1 140.456 86.3754 164.15 0.24535 -7.072
810168 1 140.396 89.3794 167.382 0.075616 -7.01292
825047 1 140.098 95.5333 170.3 0.442519 -7.88651
824809 1 143.35 95.5113 170.464 0.134287 -7.51602
839206 1 140.356 95.622 173.713 0.122969 -7.80638
2553047 1 136.969 98.7498 173.708 0.171094 -7.59089
2552805 1 136.862 98.9603 176.898 0.203324 -7.87956
2598288 1 140.463 149.785 176.059 0.235859 -6.32169
867752 1 89.2668 90.8989 178.564 0.045983 -6.96723
882770 1 146.241 105.288 183.043 0.224566 -7.01061
882911 1 213.59 108.325 183.09 0.130919 -6.61669
2614507 1 205.538 205.404 183.123 0.136303 -6.5078
897171 1 147.798 105.359 186.427 0.0412277 -6.74987
897781 1 176.825 121.174 186.226 0.126496 -6.00605
2599135 1 163.88 181.605 184.888 0.0496256 -6.59689
2599376 1 167.273 185.023 185.058 0.404845 -7.76665
901378 1 172.362 215.634 185.704 0.0673703 -6.8108
900176 1 164.238 184.889 188.302 0.0649407 -8.09849
900177 1 167.233 185.003 188.051 0.639814 -8.34395
900297 1 167.343 188.106 188.01 0.491887 -8.25582
900298 1 170.338 188.069 188.139 0.0821822 -8.05009
901139 1 172.561 211.791 188.104 0.0497537 -7.09659
901149 1 207.105 210.306 188.006 0.162102 -6.93606
914819 1 172.155 186.384 192.819 0.0525103 -7.23704
914823 1 188.173 189.604 191.078 0.130267 -6.5168
2642821 1 185.19 192.534 191.573 0.478603 -7.14552
939891 1 147.999 90.258 198.922 0.317747 -6.67814
2656134 1 159.787 163.253 197.379 0.0405389 -6.32297
970862 1 184.944 149.954 203.942 0.0838257 -6.04548
1029654 1 157.264 183.134 214.995 0.170015 -7.03217
1071656 1 164.315 150.63 221.572 0.621954 -7.3405
1157224 1 191.401 125.884 243.585 0.0416875 -6.73847
1142705 1 195.562 124.416 242.427 0.0404266 -7.29322
1157105 1 192.953 124.666 245.32 0.177274 -6.74339
