ITEM: TIMESTEP
89815
ITEM: NUMBER OF ATOMS
107
ITEM: BOX BOUNDS pp pp pp
0 360
0 360
0 360
ITEM: ATOMS id type x y z c_myKE c_myPE
2424278 1 108.062 123.986 143.125 0 -6.25384
712011 1 146.478 157.948 148.327 0 -7.23641
740569 1 143.159 154.607 151.333 0 -7.18594
2510337 1 168.684 114.42 164.208 0 -6.25509
2657473 1 221.683 196.132 194.169 0 -6.25465
972050 1 144.951 180.164 205.955 0 -7.36748
2714330 1 144.963 176.823 208.957 0 -8.45556
2700050 1 144.896 179.978 208.878 0 -8.11185
986331 1 148.176 179.873 208.82 0 -7.94366
2714445 1 132.245 183.374 208.731 0 -6.79771
1015131 1 146.437 178.388 213.491 0 -8.80363
1000612 1 148.172 176.841 212.075 0 -8.23144
2743248 1 139.992 181.573 213.598 0 -8.26264
2743367 1 137.152 184.373 213.596 0 -7.74757
2757410 1 146.448 175.248 216.682 0 -8.53469
2757529 1 143.286 178.412 216.671 0 -8.85317
1029531 1 146.416 178.406 216.577 0 -8.83519
2757648 1 140.053 181.54 216.643 0 -8.60855
2757766 1 133.651 184.57 216.672 0 -8.13176
2771810 1 146.487 175.278 219.744 0 -8.43961
1043812 1 149.678 175.255 219.806 0 -7.92726
2771929 1 143.291 178.419 219.797 0 -8.83318
2772046 1 133.817 181.504 219.845 0 -8.63508
2772047 1 136.95 181.515 219.831 0 -8.83615
2772048 1 140.068 181.555 219.771 0 -8.8554
2771811 1 149.519 175.048 222.762 0 -7.63509
1058330 1 143.229 178.418 222.953 0 -8.41946
2786446 1 133.713 181.578 222.904 0 -8.68273
2786447 1 136.901 181.556 222.936 0 -8.8419
2800728 1 140.135 178.392 225.988 0 -8.12684
2800845 1 130.527 181.488 226.099 0 -8.31648
2800846 1 133.756 181.542 226.079 0 -8.77538
2801318 1 110.343 192.908 225.977 0 -7.60687
2786799 1 113.577 192.8 225.97 0 -7.64173
2801320 1 113.108 196.922 224.864 0 -7.16082
2815125 1 130.553 178.491 229.301 0 -8.73267
2815126 1 133.761 178.443 229.319 0 -8.81713
2815127 1 136.899 178.371 229.247 0 -8.61609
2829407 1 136.897 175.233 232.447 0 -8.56009
2829525 1 130.6 178.481 232.422 0 -8.44728
2829526 1 133.744 178.43 232.421 0 -8.81961
2829645 1 130.525 181.545 232.383 0 -8.07237
2843687 1 136.914 172.119 235.628 0 -8.42753
2843807 1 136.936 175.192 235.594 0 -8.78606
2843926 1 133.733 178.292 235.613 0 -8.33833
2858087 1 137.197 171.943 238.796 0 -7.54003
1132375 1 162.337 234.455 238.837 0 -6.25675
2858085 1 132.563 173.642 240.462 0 -6.38199
2901995 1 100.48 192.916 250.329 0 -6.25999
2961155 1 98.5128 232.452 259.909 0 -6.25573
2988178 1 171.926 186.606 270.782 0 -6.26289
2990328 1 140.037 242.196 269.632 0 -7.06849
3090534 1 161.069 228.035 289.883 0 -6.25697
1592450 1 145.105 216.501 340.91 0 -6.25511
726411 1 144.868 156.447 149.918 0 -7.76877
2454291 1 147.971 156.235 149.869 0 -7.40427
740690 1 146.705 154.264 154.166 0 -7.14595
2497369 1 144.797 156.198 153.131 0 -8.12372
886145 1 191.433 194.592 181.819 0 -6.28823
886265 1 194.521 197.679 183.046 0 -7.37383
2614144 1 194.521 195.821 184.905 0 -7.37374
2614384 1 191.436 198.908 186.135 0 -6.28556
897049 1 141.561 100.05 188.135 0 -6.25532
942392 1 87.3191 159.443 195.757 0 -6.25923
2655661 1 183.028 147.929 197.707 0 -6.25672
1015128 1 140.32 178.393 210.455 0 -8.49366
2728730 1 144.746 179.979 211.83 0 -8.72358
2743011 1 148.061 176.774 215.086 0 -8.44235
2714329 1 140.2 178.373 213.63 0 -8.79031
1015250 1 143.293 178.402 213.551 0 -8.85396
1029767 1 135.218 183.132 215.066 0 -8.43436
1043930 1 144.883 176.854 218.227 0 -8.82088
1044049 1 141.677 179.982 218.23 0 -8.86197
1044165 1 129.09 183.001 218.287 0 -7.433
1044167 1 135.345 183.082 218.229 0 -8.57879
1044168 1 138.451 183.1 218.211 0 -8.58814
2786210 1 144.92 176.819 221.368 0 -8.42269
1058448 1 138.553 179.962 221.431 0 -8.85454
1058449 1 141.674 180.001 221.35 0 -8.85148
1058920 1 111.342 194.271 220.769 0 -7.64799
1059038 1 108.277 197.717 221.204 0 -7.16707
1072847 1 135.389 179.974 224.576 0 -8.87356
1072848 1 138.509 180.005 224.531 0 -8.85665
1072849 1 141.638 180.089 224.473 0 -8.57141
1072966 1 132.14 183.076 224.554 0 -8.2376
1087599 1 111.914 191.391 224.425 0 -7.60645
1044399 1 108.579 194.532 224.632 0 -7.35904
1087246 1 132.25 180.019 227.729 0 -8.5729
1087247 1 135.366 179.981 227.68 0 -8.84978
1087248 1 138.499 180.045 227.651 0 -8.61337
1088813 1 154.357 223.309 227.687 0 -6.82423
1101527 1 135.357 176.86 230.9 0 -8.8167
1101528 1 138.547 176.8 230.917 0 -8.11143
1103093 1 154.282 220.07 230.964 0 -6.51738
1115808 1 138.603 173.729 234.046 0 -8.11676
1115927 1 135.347 176.835 234.007 0 -8.77289
1116045 1 129.047 179.957 234.175 0 -7.75317
1130088 1 138.543 170.328 237.146 0 -7.81711
1130207 1 135.378 173.635 237.264 0 -8.30535
1130327 1 135.323 176.634 237.209 0 -8.34772
1144489 1 141.739 170.235 240.525 0 -6.72071
2975807 1 137.037 239.143 268.988 0 -6.92356
1262448 1 138.296 243.571 267.864 0 -7.04674
3004019 1 176.691 226.463 272.346 0 -6.25666
1303712 1 87.3457 192.573 277.453 0 -6.25623
1491403 1 122.438 207.272 316.997 0 -6.82146
1491404 1 125.695 207.397 320.253 0 -6.54716
