ITEM: TIMESTEP
89000
ITEM: NUMBER OF ATOMS
68
ITEM: BOX BOUNDS pp pp pp
0 360
0 360
0 360
ITEM: ATOMS id type x y z
539472 1 213.75 165.75 111.75
568152 1 213.75 162.75 117.75
596591 1 210.75 153.75 123.75
640634 1 219.75 174.75 132.75
640635 1 222.75 174.75 132.75
683593 1 216.75 168.75 141.75
697009 1 144.75 144.75 144.75
697869 1 204.75 165.75 144.75
784259 1 174.75 165.75 162.75
827102 1 183.75 156.75 171.75
883415 1 282.75 123.75 183.75
883418 1 291.75 123.75 183.75
897693 1 276.75 120.75 186.75
899824 1 189.75 174.75 186.75
912093 1 276.75 120.75 189.75
928382 1 183.75 168.75 192.75
940644 1 249.75 114.75 195.75
941008 1 261.75 123.75 195.75
941488 1 261.75 135.75 195.75
942343 1 306.75 156.75 195.75
942781 1 180.75 168.75 195.75
942782 1 183.75 168.75 195.75
942901 1 180.75 171.75 195.75
954929 1 264.75 111.75 198.75
957188 1 201.75 168.75 198.75
970867 1 198.75 150.75 201.75
983243 1 246.75 99.75 204.75
983485 1 252.75 105.75 204.75
986220 1 177.75 174.75 204.75
998729 1 264.75 126.75 207.75
998734 1 279.75 126.75 207.75
1000153 1 216.75 162.75 207.75
1012408 1 261.75 108.75 210.75
1012531 1 270.75 111.75 210.75
1014898 1 171.75 171.75 210.75
1058113 1 216.75 171.75 219.75
2324590 1 209.25 155.25 125.25
2325193 1 218.25 170.25 125.25
2368272 1 215.25 167.25 134.25
2426094 1 161.25 173.25 146.25
2553212 1 275.25 110.25 173.25
2570583 1 188.25 185.25 176.25
2582255 1 284.25 116.25 179.25
2582727 1 260.25 128.25 179.25
2599022 1 185.25 176.25 182.25
2610812 1 275.25 110.25 185.25
2610932 1 275.25 113.25 185.25
2610935 1 284.25 113.25 185.25
2625330 1 269.25 113.25 188.25
2627581 1 182.25 170.25 188.25
2639613 1 278.25 110.25 191.25
2639973 1 278.25 119.25 191.25
2640093 1 278.25 122.25 191.25
2654134 1 281.25 113.25 194.25
2654851 1 272.25 131.25 194.25
2654970 1 269.25 134.25 194.25
2655796 1 227.25 155.25 194.25
2655821 1 302.25 155.25 194.25
2656741 1 182.25 179.25 194.25
2668529 1 266.25 113.25 197.25
2669602 1 245.25 140.25 197.25
2670779 1 176.25 170.25 197.25
2682931 1 272.25 113.25 200.25
2685780 1 179.25 185.25 200.25
2697332 1 275.25 113.25 203.25
2698532 1 275.25 143.25 203.25
2711969 1 266.25 119.25 206.25
2728392 1 215.25 170.25 209.25
