ITEM: TIMESTEP
89000
ITEM: NUMBER OF ATOMS
80
ITEM: BOX BOUNDS pp pp pp
0 360
0 360
0 360
ITEM: ATOMS id type x y z c_myKE c_myPE
2439292 1 155.058 140.268 146.33 0.11684 -6.81453
2429703 1 189.74 267.78 144.945 0.172651 -7.10806
755820 1 177.029 176.964 154.48 0.332907 -6.23523
2498806 1 135.726 192.818 158.972 0.18847 -6.61009
2510438 1 108.243 119.638 164.246 0.0622108 -6.73774
830571 1 144.873 245.021 164.139 0.171306 -6.77017
2515250 1 148.078 245.221 163.986 0.0669374 -6.68683
772970 1 145.301 248.49 164.426 0.0614233 -6.78616
2542365 1 130.49 200.516 170.333 0.0253977 -7.79557
2542486 1 133.864 203.526 170.67 0.0786502 -7.97194
2557738 1 173.876 228.879 172.011 0.25275 -6.11207
817599 1 111.408 285.232 170.646 0.0761741 -6.74421
2556645 1 130.469 197.085 173.535 0.335646 -8.0403
2556646 1 133.844 197.217 173.604 0.0325291 -8.14123
2556766 1 133.871 200.368 173.628 0.0906944 -8.78045
2542485 1 133.957 203.52 173.65 0.101403 -8.28531
2559403 1 124.019 270.64 173.67 0.0745099 -6.50765
2570927 1 136.788 194.075 177.004 0.183456 -8.23974
2585312 1 89.1131 196.069 177.91 0.0205069 -6.57439
2571047 1 136.954 197.266 176.58 0.238616 -8.2926
2571167 1 137.013 200.395 176.901 0.0343945 -8.64298
2571286 1 133.824 203.703 176.747 0.522056 -8.79505
2571287 1 137.05 203.527 176.851 0.118381 -8.47153
871487 1 136.988 191.097 180.122 0.39195 -7.4061
2585207 1 135.396 192.79 181.499 0.262513 -8.50154
2585567 1 136.972 200.529 179.846 0.0141979 -8.69447
2585568 1 140.155 200.372 180.021 0.166858 -8.71889
2585687 1 136.971 203.615 179.996 0.240871 0
2587148 1 206.028 241.826 181.551 0.131033 -5.99877
2599968 1 140.253 200.501 183.196 0.0308481 -8.47847
2600087 1 137.14 203.58 183.153 0.115673 -8.49893
2600207 1 137.089 206.866 183.157 0.302521 -7.843
2603935 1 164.188 305.957 184.588 0.245848 -6.03144
2628184 1 190.848 186.498 187.885 0.309632 -6.26829
2614487 1 137.103 203.634 186.392 0.0451582 -7.91022
888889 1 141.889 264.347 186.617 0.10478 -6.22466
2660453 1 157.617 277.123 196.029 0.220703 -6.94294
1013797 1 103.861 138.687 212.303 0.120119 -5.98187
713825 1 194.45 207.091 144.614 0.00649416 -6.41866
725692 1 153.136 138.277 147.67 0.0507977 -6.32739
716103 1 188.412 265.956 146.476 0.263784 -6.79286
741402 1 119.44 175.309 153.087 0.194659 -6.28615
742249 1 138.323 198.865 152.895 0.477262 -6.80593
756045 1 129.056 181.457 156.737 0.135399 -6.3928
771895 1 162.833 218.151 157.576 0.00645749 -6.14258
2569487 1 140.17 159.39 173.766 0.0168195 -5.29888
828646 1 130.743 194.322 173.688 0.116054 -7.73536
843296 1 162.69 205.176 173.396 0.0348319 -6.643
2570574 1 152.841 181.24 176.336 0.117687 -8.12038
843047 1 135.239 195.596 175.179 0.034468 -8.53667
843167 1 135.43 198.688 175.103 0.00597001 -8.66765
843287 1 135.454 201.933 175.408 0.119544 -8.36656
843406 1 132.192 205.393 175.208 0.0156379 -7.83304
843526 1 132.147 208.501 175.347 0.122901 -7.49929
843527 1 135.641 208.475 175.319 0.480524 -8.3824
843647 1 135.257 211.292 175.247 0.0824257 -7.57509
2584855 1 152.918 179.175 178.376 0.149985 -7.71127
856854 1 156.598 182.919 178.23 0.130187 -6.83144
857568 1 138.549 198.95 178.517 0.144591 -8.21682
857807 1 135.558 205.242 178.452 0.0571327 -8.67838
857927 1 135.617 208.47 178.468 0.165344 -8.39582
871255 1 156.471 179.91 181.658 0.250863 -6.81567
856972 1 150.15 185.998 183.023 0.562413 -7.04742
886247 1 137.1 194.285 182.97 0.2657 -8.42112
871969 1 141.764 198.795 181.469 0.0631611 -7.8941
872088 1 138.649 202.061 181.453 0.897781 -8.62728
872207 1 135.582 205.064 181.765 0.0462751 -8.34675
887942 1 183.285 242.596 183.054 0.26581 -5.98546
886488 1 138.762 202.143 184.845 0.222498 -8.37829
914096 1 164.053 170.227 189.483 0.28471 -6.34749
903771 1 149.912 278.473 188.259 0.1994 -6.63928
918051 1 149.848 275.475 191.549 0.101169 -7.00152
918172 1 153.191 278.896 191.192 0.226387 -6.96132
955954 1 95.7027 136.9 200.789 0.407628 -6.86162
2685284 1 127.587 170.228 201.098 0.0377752 -6.61658
957405 1 125.834 172.101 202.322 0.0990237 -6.5807
971577 1 167.196 166.89 204.122 0.072037 -6.53744
985857 1 167.211 163.873 207.5 0.155308 -6.60656
1000132 1 151.079 162.525 210.738 0.0511738 -6.65462
1058333 1 154.413 178.663 223.532 0.0144663 -6.41313
