ITEM: TIMESTEP
86000
ITEM: NUMBER OF ATOMS
69
ITEM: BOX BOUNDS pp pp pp
0 360
0 360
0 360
ITEM: ATOMS id type x y z
697002 1 123.75 144.75 144.75
712249 1 144.75 165.75 147.75
712251 1 150.75 165.75 147.75
726045 1 132.75 150.75 150.75
742027 1 198.75 189.75 153.75
755567 1 138.75 168.75 156.75
768886 1 135.75 141.75 159.75
770590 1 207.75 183.75 159.75
783048 1 141.75 135.75 162.75
783535 1 162.75 147.75 162.75
797566 1 135.75 138.75 165.75
798767 1 138.75 168.75 165.75
812209 1 144.75 144.75 168.75
827811 1 150.75 174.75 171.75
840526 1 135.75 132.75 174.75
854818 1 171.75 129.75 177.75
856502 1 183.75 171.75 177.75
870546 1 195.75 162.75 180.75
871143 1 186.75 177.75 180.75
880736 1 165.75 57.75 183.75
894897 1 168.75 51.75 186.75
925025 1 192.75 84.75 192.75
938335 1 162.75 57.75 195.75
952135 1 162.75 42.75 198.75
952258 1 171.75 45.75 198.75
952261 1 180.75 45.75 198.75
952492 1 153.75 51.75 198.75
952738 1 171.75 57.75 198.75
956821 1 180.75 159.75 198.75
981417 1 168.75 54.75 204.75
1081609 1 144.75 39.75 225.75
2455386 1 197.25 185.25 152.25
2468329 1 146.25 149.25 155.25
2468567 1 140.25 155.25 155.25
2497966 1 137.25 170.25 161.25
2511647 1 140.25 152.25 164.25
2512128 1 143.25 164.25 164.25
2512246 1 137.25 167.25 164.25
2525689 1 146.25 143.25 167.25
2525809 1 146.25 146.25 167.25
2525928 1 143.25 149.25 167.25
2526165 1 134.25 155.25 167.25
2540207 1 140.25 146.25 170.25
2540931 1 152.25 164.25 170.25
2569742 1 185.25 164.25 176.25
2584739 1 176.25 179.25 179.25
2593741 1 182.25 44.25 182.25
2597568 1 143.25 140.25 182.25
2597690 1 149.25 143.25 182.25
2599023 1 188.25 176.25 182.25
2608137 1 170.25 44.25 185.25
2611972 1 155.25 140.25 185.25
2612824 1 191.25 161.25 185.25
2623136 1 167.25 59.25 188.25
2636942 1 185.25 44.25 191.25
2637303 1 188.25 53.25 191.25
2637304 1 191.25 53.25 191.25
2637540 1 179.25 59.25 191.25
2637660 1 179.25 62.25 191.25
2651700 1 179.25 53.25 194.25
2651937 1 170.25 59.25 194.25
2652170 1 149.25 65.25 194.25
2666097 1 170.25 53.25 197.25
2680257 1 170.25 47.25 200.25
2694535 1 164.25 44.25 203.25
2695138 1 173.25 59.25 203.25
2695612 1 155.25 71.25 203.25
2699454 1 161.25 167.25 203.25
2738332 1 155.25 59.25 212.25
