ITEM: TIMESTEP
88664
ITEM: NUMBER OF ATOMS
88
ITEM: BOX BOUNDS pp pp pp
0 360
0 360
0 360
ITEM: ATOMS id type x y z
612183 1 186.75 183.75 126.75
615424 1 189.75 264.75 126.75
642406 1 135.75 219.75 132.75
681521 1 120.75 117.75 141.75
741175 1 162.75 168.75 153.75
755455 1 162.75 165.75 156.75
755574 1 159.75 168.75 156.75
757368 1 141.75 213.75 156.75
757488 1 141.75 216.75 156.75
758088 1 141.75 231.75 156.75
760737 1 168.75 297.75 156.75
767212 1 153.75 99.75 159.75
769596 1 105.75 159.75 159.75
769977 1 168.75 168.75 159.75
770096 1 165.75 171.75 159.75
771060 1 177.75 195.75 159.75
772608 1 141.75 234.75 159.75
784376 1 165.75 168.75 162.75
784508 1 201.75 171.75 162.75
785100 1 177.75 186.75 162.75
795040 1 117.75 75.75 165.75
798788 1 201.75 168.75 165.75
811736 1 165.75 132.75 168.75
841965 1 132.75 168.75 174.75
882540 1 177.75 102.75 183.75
882778 1 171.75 108.75 183.75
896818 1 171.75 99.75 186.75
924778 1 171.75 78.75 192.75
938585 1 192.75 63.75 195.75
938705 1 192.75 66.75 195.75
969060 1 177.75 105.75 201.75
983580 1 177.75 108.75 204.75
1010593 1 216.75 63.75 210.75
1027959 1 114.75 138.75 213.75
1042238 1 111.75 135.75 216.75
1042239 1 114.75 135.75 216.75
1056518 1 111.75 132.75 219.75
1056637 1 108.75 135.75 219.75
1056638 1 111.75 135.75 219.75
1056758 1 111.75 138.75 219.75
1067934 1 159.75 57.75 222.75
1071157 1 108.75 138.75 222.75
1139939 1 174.75 57.75 237.75
1156132 1 153.75 102.75 240.75
2241419 1 176.25 236.25 107.25
2366915 1 104.25 134.25 134.25
2439278 1 113.25 143.25 149.25
2441810 1 149.25 206.25 149.25
2469056 1 167.25 167.25 155.25
2474336 1 167.25 299.25 155.25
2481768 1 143.25 125.25 158.25
2483195 1 104.25 161.25 158.25
2483574 1 161.25 170.25 158.25
2483695 1 164.25 173.25 158.25
2484164 1 131.25 185.25 158.25
2485367 1 140.25 215.25 158.25
2498096 1 167.25 173.25 161.25
2509853 1 158.25 107.25 164.25
2513218 1 173.25 191.25 164.25
2583991 1 92.25 161.25 179.25
2596138 1 173.25 104.25 182.25
2598390 1 89.25 161.25 182.25
2598511 1 92.25 164.25 182.25
2610537 1 170.25 104.25 185.25
2610539 1 176.25 104.25 185.25
2610658 1 173.25 107.25 185.25
2612322 1 125.25 149.25 185.25
2612443 1 128.25 152.25 185.25
2624938 1 173.25 104.25 188.25
2626723 1 128.25 149.25 188.25
2652305 1 194.25 68.25 194.25
2662871 1 212.25 332.25 194.25
2666584 1 191.25 65.25 197.25
2681104 1 191.25 68.25 200.25
2682781 1 182.25 110.25 200.25
2684098 1 173.25 143.25 200.25
2697180 1 179.25 110.25 203.25
2697301 1 182.25 113.25 203.25
2738593 1 218.25 65.25 212.25
2755959 1 116.25 140.25 215.25
2770238 1 113.25 137.25 218.25
2781414 1 161.25 56.25 221.25
2784636 1 107.25 137.25 221.25
2784637 1 110.25 137.25 221.25
2853659 1 176.25 62.25 236.25
2882095 1 164.25 53.25 242.25
2886991 1 92.25 176.25 242.25
2896496 1 167.25 53.25 245.25
