ITEM: TIMESTEP
91000
ITEM: NUMBER OF ATOMS
84
ITEM: BOX BOUNDS pp pp pp
0 360
0 360
0 360
ITEM: ATOMS id type x y z c_myKE c_myPE
2267232 1 218.012 158.912 109.797 0.0409113 -5.38843
2469662 1 189.753 187.759 154.474 0.241972 -7.60515
727866 1 192.717 188.106 154.659 0.411283 -7.53454
727623 1 189.638 191.308 154.751 0.0962627 -8.10067
755819 1 174.147 171.855 157.792 0.013582 -7.78156
2498101 1 183.462 171.973 157.409 0.115283 -6.78268
2469422 1 180.27 178.395 157.686 0.108271 -8.31
2484302 1 183.346 187.711 157.823 0.260642 -7.00358
2498942 1 186.691 191.04 157.755 0.0355564 -7.22626
2498823 1 189.874 191.316 157.582 0.0626177 -7.84413
770943 1 189.527 194.453 157.827 0.283392 -7.59662
2512258 1 173.899 172.06 160.912 0.15016 -8.41829
770100 1 177.228 172.077 160.837 0.0996849 -8.25944
2512740 1 176.963 178.374 160.924 0.0924383 -8.51222
799142 1 180.074 178.409 160.8 0.135492 -8.47191
2498223 1 183.015 178.202 160.873 0.126452 -7.78058
784862 1 180.082 181.685 160.892 0.0394347 -8.47949
2513103 1 189.798 190.988 160.893 0.233465 -7.68337
2526778 1 173.997 172.173 164.151 0.545155 -8.05614
784739 1 177.155 178.482 163.999 0.0673921 -8.1182
2525686 1 133.586 141.505 167.3 0.0791791 -6.70701
2641737 1 173.647 164.204 186.947 0.0386922 -8.13834
899459 1 173.855 167.019 186.38 0.117882 -7.66713
2629016 1 165.398 208.948 187.906 0.105548 -6.18307
2627334 1 167.495 161.033 189.725 0.263793 -7.88067
2627698 1 173.725 170.461 189.677 0.1738 -7.36063
2670417 1 167.461 157.725 193.071 0.370866 -7.1918
2641618 1 173.841 160.836 192.899 0.112074 -7.42081
2845120 1 116.221 211.87 235.763 0.17246 0
1130675 1 97.9295 184.547 238.647 0.145516 -6.41518
2887606 1 135.56 193.051 246.928 0.175076 -6.36418
2959957 1 104.849 200.305 261.634 0.136407 -6.07842
2973641 1 119.693 181.751 264.452 0.0981119 -7.43997
1231480 1 113.527 187.759 264.299 0.104412 -6.59996
1231242 1 119.587 187.958 264.242 0.0194801 -7.37712
2972323 1 124.07 148.375 266.231 0.0443666 -6.37352
2988161 1 119.53 184.657 267.354 0.0398826 -7.4915
3119550 1 84.5239 230.898 299.224 0.00974385 -6.68443
671698 1 168.953 235.815 137.127 0.082351 -6.81817
727505 1 194.614 186.279 153.249 0.176582 -7.17442
742490 1 144.926 202.233 153.911 0.215248 -6.51966
2469540 1 178.551 176.834 155.958 0.0854787 -7.96913
2484063 1 181.459 183.056 156.124 0.493381 -7.27498
2455622 1 188.27 189.405 156.051 0.70799 -7.37228
742144 1 191.478 192.726 156.273 0.07345 -7.91413
2497979 1 172.27 170.476 159.253 0.102972 -7.76216
770460 1 178.653 173.642 159.086 0.12688 -8.36397
2469419 1 178.663 176.783 159.284 0.0667191 -8.67937
2512498 1 172.17 170.584 162.476 0.25721 -7.81696
784380 1 175.432 173.543 162.458 0.180651 -8.5627
770220 1 178.686 173.615 162.338 0.0127188 -8.5139
784740 1 175.314 176.625 162.455 0.204598 -8.58961
828061 1 178.523 180.111 162.567 0.502894 -8.11682
2541904 1 184.515 182.996 162.548 0.114285 -7.57865
812206 1 132.117 143.46 165.948 0.0622121 -6.4184
2526779 1 175.509 173.737 165.642 0.734281 -8.08532
784620 1 172.571 176.638 165.866 0.0633584 -7.47661
813421 1 175.305 176.567 165.636 0.0817721 -7.81281
2498102 1 184.791 179.876 165.943 0.106716 -7.38169
812207 1 135.14 143.571 169.129 0.179397 -6.97211
2627339 1 175.514 165.529 185.095 0.224453 -7.06174
2613060 1 178.634 168.855 185.22 0.225222 -7.32728
886735 1 162.204 208.644 184.976 0.237282 -6.72733
899338 1 172.01 162.438 188.374 0.207493 -8.04375
915296 1 163.971 204.496 189.157 0.139348 -7.05948
926814 1 162.502 127.369 192.359 0.0855529 -6.65598
913738 1 172.051 162.327 191.458 0.210514 -7.85774
928258 1 173.428 166.734 192.751 0.144564 -7.74493
928138 1 172.058 162.445 194.634 0.165517 -8.34447
942913 1 218.511 172.187 195.427 0.0802826 -6.60032
985260 1 176.769 146.547 207.439 0.191055 -5.87688
1099726 1 134.144 128.834 230.647 0.199281 -6.13269
1131396 1 102.055 207.108 237.231 0.0744902 -6.11941
1145086 1 134.017 188.144 242.46 0.305219 -6.55197
2885933 1 157.808 149.818 249.005 0.132647 -6.85298
1217558 1 105.078 198.596 259.596 0.277522 -7.64955
2959240 1 118.152 183.297 262.841 0.0918945 -7.72768
1244464 1 191.436 147.732 265.119 0.0275249 -6.19983
1260281 1 117.718 186.45 265.892 0.146832 -7.3875
1320380 1 50.9866 253.381 280.416 0.155862 -6.2692
3089309 1 84.2137 195.908 290.086 0.0622609 -6.71614
1376785 1 63.8949 221.428 289.927 0.101313 -6.82499
1362504 1 60.915 224.475 289.965 0.0343722 -6.74192
1505315 1 97.0137 192.387 322.282 0.0387815 -6.78355
