ITEM: TIMESTEP
88000
ITEM: NUMBER OF ATOMS
63
ITEM: BOX BOUNDS pp pp pp
0 360
0 360
0 360
ITEM: ATOMS id type x y z
597316 1 225.75 171.75 123.75
597778 1 171.75 183.75 123.75
611716 1 225.75 171.75 126.75
611836 1 225.75 174.75 126.75
681548 1 201.75 117.75 141.75
696888 1 141.75 141.75 144.75
698214 1 159.75 174.75 144.75
767348 1 201.75 102.75 159.75
781749 1 204.75 102.75 162.75
797098 1 171.75 126.75 165.75
811498 1 171.75 126.75 168.75
857333 1 156.75 192.75 177.75
871852 1 153.75 195.75 180.75
871853 1 156.75 195.75 180.75
873168 1 141.75 228.75 180.75
873169 1 144.75 228.75 180.75
886253 1 156.75 195.75 183.75
886373 1 156.75 198.75 183.75
900772 1 153.75 198.75 186.75
927163 1 126.75 138.75 192.75
957422 1 183.75 174.75 198.75
957561 1 240.75 177.75 198.75
971580 1 177.75 168.75 201.75
971822 1 183.75 174.75 201.75
985860 1 177.75 165.75 204.75
985981 1 180.75 168.75 204.75
986101 1 180.75 171.75 204.75
986221 1 180.75 174.75 204.75
1044669 1 204.75 195.75 216.75
1088593 1 216.75 213.75 225.75
1131784 1 189.75 213.75 234.75
2325195 1 224.25 170.25 125.25
2381221 1 182.25 131.25 137.25
2455036 1 227.25 176.25 152.25
2485362 1 125.25 215.25 158.25
2499642 1 125.25 212.25 161.25
2499761 1 122.25 215.25 161.25
2500009 1 146.25 221.25 161.25
2501084 1 131.25 248.25 161.25
2501205 1 134.25 251.25 161.25
2501824 1 191.25 266.25 161.25
2528473 1 218.25 212.25 167.25
2539258 1 173.25 122.25 170.25
2571069 1 206.25 197.25 176.25
2582444 1 131.25 122.25 179.25
2585332 1 155.25 194.25 179.25
2599852 1 155.25 197.25 182.25
2600593 1 218.25 215.25 182.25
2601168 1 143.25 230.25 182.25
2625770 1 149.25 125.25 188.25
2669681 1 122.25 143.25 197.25
2671881 1 242.25 197.25 197.25
2685180 1 179.25 170.25 200.25
2685301 1 182.25 173.25 200.25
2699581 1 182.25 170.25 203.25
2699701 1 182.25 173.25 203.25
2699821 1 182.25 176.25 203.25
2713980 1 179.25 170.25 206.25
2714100 1 179.25 173.25 206.25
2714221 1 182.25 176.25 206.25
2714809 1 146.25 191.25 206.25
2728501 1 182.25 173.25 209.25
2758269 1 206.25 197.25 215.25
