ITEM: TIMESTEP
91000
ITEM: NUMBER OF ATOMS
99
ITEM: BOX BOUNDS pp pp pp
0 360
0 360
0 360
ITEM: ATOMS id type x y z
582183 1 186.75 153.75 120.75
582899 1 174.75 171.75 120.75
627195 1 222.75 198.75 129.75
670757 1 228.75 207.75 138.75
713595 1 222.75 198.75 147.75
726303 1 186.75 156.75 150.75
727403 1 246.75 183.75 150.75
740941 1 180.75 162.75 153.75
741803 1 246.75 183.75 153.75
755344 1 189.75 162.75 156.75
770483 1 246.75 180.75 159.75
770489 1 264.75 180.75 159.75
783905 1 192.75 156.75 162.75
798175 1 162.75 153.75 165.75
799046 1 255.75 174.75 165.75
799280 1 237.75 180.75 165.75
813443 1 246.75 174.75 168.75
813560 1 237.75 177.75 168.75
814047 1 258.75 189.75 168.75
827475 1 222.75 165.75 171.75
827599 1 234.75 168.75 171.75
827728 1 261.75 171.75 171.75
827843 1 246.75 174.75 171.75
827958 1 231.75 177.75 171.75
827960 1 237.75 177.75 171.75
827961 1 240.75 177.75 171.75
828081 1 240.75 180.75 171.75
828082 1 243.75 180.75 171.75
842365 1 252.75 177.75 174.75
856878 1 231.75 180.75 177.75
870799 1 234.75 168.75 180.75
871160 1 237.75 177.75 180.75
885327 1 258.75 171.75 183.75
885442 1 243.75 174.75 183.75
899718 1 231.75 171.75 186.75
899723 1 246.75 171.75 186.75
900200 1 237.75 183.75 186.75
914123 1 246.75 171.75 189.75
914716 1 225.75 186.75 189.75
945081 1 240.75 225.75 195.75
957562 1 243.75 177.75 198.75
959362 1 243.75 222.75 198.75
973880 1 237.75 225.75 201.75
1030651 1 270.75 204.75 213.75
1090041 1 240.75 249.75 225.75
1132883 1 246.75 240.75 234.75
1159412 1 273.75 183.75 240.75
2353502 1 185.25 158.25 131.25
2381929 1 146.25 149.25 137.25
2410983 1 188.25 155.25 143.25
2425144 1 191.25 149.25 146.25
2426224 1 191.25 176.25 146.25
2426835 1 224.25 191.25 146.25
2439540 1 179.25 149.25 149.25
2439662 1 185.25 152.25 149.25
2441004 1 251.25 185.25 149.25
2441105 1 194.25 188.25 149.25
2454423 1 188.25 161.25 152.25
2455265 1 194.25 182.25 152.25
2468576 1 167.25 155.25 155.25
2482744 1 191.25 149.25 158.25
2484318 1 233.25 188.25 158.25
2497156 1 227.25 149.25 161.25
2497383 1 188.25 155.25 161.25
2511783 1 188.25 155.25 164.25
2525697 1 170.25 143.25 167.25
2526684 1 251.25 167.25 167.25
2541439 1 236.25 176.25 170.25
2541441 1 242.25 176.25 170.25
2541442 1 245.25 176.25 170.25
2541560 1 239.25 179.25 170.25
2541566 1 257.25 179.25 170.25
2555839 1 236.25 176.25 173.25
2555840 1 239.25 176.25 173.25
2555848 1 263.25 176.25 173.25
2556082 1 245.25 182.25 173.25
2570239 1 236.25 176.25 176.25
2570482 1 245.25 182.25 176.25
2570602 1 245.25 185.25 176.25
2570724 1 251.25 188.25 176.25
2613678 1 233.25 182.25 185.25
2642243 1 248.25 176.25 191.25
2642481 1 242.25 182.25 191.25
2657237 1 230.25 191.25 194.25
2658441 1 242.25 221.25 194.25
2744370 1 269.25 209.25 212.25
2745201 1 242.25 230.25 212.25
2787933 1 278.25 218.25 221.25
2788635 1 224.25 236.25 221.25
2803041 1 242.25 236.25 224.25
2803159 1 236.25 239.25 224.25
2803278 1 233.25 242.25 224.25
2817317 1 230.25 233.25 227.25
2817318 1 233.25 233.25 227.25
2818042 1 245.25 251.25 227.25
2831355 1 224.25 224.25 230.25
2831717 1 230.25 233.25 230.25
2832441 1 242.25 251.25 230.25
2846117 1 230.25 233.25 233.25
