ITEM: TIMESTEP
89000
ITEM: NUMBER OF ATOMS
71
ITEM: BOX BOUNDS pp pp pp
0 360
0 360
0 360
ITEM: ATOMS id type x y z
551113 1 216.75 96.75 114.75
551607 1 258.75 108.75 114.75
600053 1 156.75 240.75 123.75
614573 1 156.75 243.75 126.75
697978 1 171.75 168.75 144.75
697979 1 174.75 168.75 144.75
699177 1 168.75 198.75 144.75
712143 1 186.75 162.75 147.75
713457 1 168.75 195.75 147.75
713566 1 135.75 198.75 147.75
713577 1 168.75 198.75 147.75
713697 1 168.75 201.75 147.75
769279 1 234.75 150.75 159.75
810781 1 180.75 108.75 168.75
826749 1 204.75 147.75 171.75
826750 1 207.75 147.75 171.75
826868 1 201.75 150.75 171.75
826869 1 204.75 150.75 171.75
855428 1 201.75 144.75 177.75
858299 1 174.75 216.75 177.75
869706 1 195.75 141.75 180.75
869828 1 201.75 144.75 180.75
869830 1 207.75 144.75 180.75
884106 1 195.75 141.75 183.75
884108 1 201.75 141.75 183.75
884109 1 204.75 141.75 183.75
884110 1 207.75 141.75 183.75
884228 1 201.75 144.75 183.75
884229 1 204.75 144.75 183.75
896481 1 240.75 90.75 186.75
898509 1 204.75 141.75 186.75
931505 1 192.75 246.75 192.75
2327336 1 167.25 224.25 125.25
2327932 1 155.25 239.25 125.25
2341735 1 164.25 224.25 128.25
2365863 1 188.25 107.25 134.25
2411578 1 173.25 170.25 143.25
2423000 1 239.25 95.25 146.25
2427165 1 134.25 200.25 146.25
2427176 1 167.25 200.25 146.25
2441577 1 170.25 200.25 149.25
2441698 1 173.25 203.25 149.25
2453239 1 236.25 131.25 152.25
2456097 1 170.25 203.25 152.25
2569027 1 200.25 146.25 176.25
2569147 1 200.25 149.25 176.25
2571899 1 176.25 218.25 176.25
2572018 1 173.25 221.25 176.25
2583306 1 197.25 143.25 179.25
2583428 1 203.25 146.25 179.25
2583429 1 206.25 146.25 179.25
2583547 1 200.25 149.25 179.25
2586298 1 173.25 218.25 179.25
2597467 1 200.25 137.25 182.25
2597706 1 197.25 143.25 182.25
2597707 1 200.25 143.25 182.25
2597826 1 197.25 146.25 182.25
2597828 1 203.25 146.25 182.25
2611870 1 209.25 137.25 185.25
2611987 1 200.25 140.25 185.25
2611988 1 203.25 140.25 185.25
2612106 1 197.25 143.25 185.25
2626269 1 206.25 137.25 188.25
2644265 1 194.25 227.25 191.25
2671735 1 164.25 194.25 197.25
2671855 1 164.25 197.25 197.25
2685664 1 191.25 182.25 200.25
2687460 1 179.25 227.25 200.25
2744003 1 248.25 200.25 212.25
2772913 1 218.25 203.25 218.25
2847185 1 194.25 260.25 233.25
