ITEM: TIMESTEP
94000
ITEM: NUMBER OF ATOMS
90
ITEM: BOX BOUNDS pp pp pp
0 360
0 360
0 360
ITEM: ATOMS id type x y z c_myKE c_myPE
2425866 1 199.271 167.541 143.091 0.467988 -6.11228
2426708 1 205.619 189.631 145.003 0.213419 -6.65753
2498450 1 147.989 183.418 164.091 0.191851 -6.4557
2512969 1 145.041 186.608 164.138 0.299014 -6.50157
2554866 1 197.46 149.424 171.763 0.240332 -7.05669
2542148 1 205.585 194.34 170.662 0.0470576 -5.74541
828065 1 192.885 181.488 173.446 0.196638 -6.60783
856746 1 194.231 177.099 178.105 0.163257 -7.41061
2584249 1 144.95 167.142 180.087 0.220368 -6.98852
2700420 1 178.127 192.81 205.569 0.0351342 -6.04578
1071774 1 159.288 153.072 228.817 0.112114 -6.26076
2843221 1 181.251 161.097 235.665 0.0243719 -6.32434
1144260 1 178.407 164.599 239.037 0.0293737 -7.31463
1172696 1 162.481 151.427 251.151 0.0829994 -6.98961
2929134 1 159.54 148.217 254.716 0.287673 -6.79305
2929254 1 159.586 151.219 254.429 0.0749831 -7.55665
2958669 1 206.948 167.67 262.823 0.0868308 -6.87457
3001380 1 180.182 154.305 270.795 0.350188 -6.77314
1431535 1 157.72 141.859 299.448 0.0340498 -7.56001
1416773 1 157.951 138.818 302.498 0.137694 -7.20091
3116094 1 157.459 141.919 302.296 0.018032 -7.9086
1446293 1 155.87 149.959 302.379 0.133989 -6.82566
3145253 1 156.053 152.791 305.86 0.387394 -8.21179
1460693 1 151.549 154.547 304.345 0.157239 -8.19859
3159893 1 155.788 149.423 309.218 0.360497 -7.27129
1446412 1 152.944 155.992 309.028 0.24274 -8.81185
3174293 1 156.058 155.863 308.849 0.0507086 -8.1771
1475091 1 149.597 156.079 312.198 0.156697 -8.39813
1446292 1 152.908 156.174 312.252 0.217407 -8.66428
3159774 1 156.127 156.134 312.005 0.160754 -8.37546
1489613 1 149.732 159.316 312.125 0.790464 -8.78591
1475451 1 146.427 162.194 312.007 0.324351 -7.7353
1489491 1 149.758 153.029 315.33 0.307834 -8.83397
3202972 1 152.886 153.003 315.158 0.183979 -8.30287
1460931 1 146.552 159.207 315.287 0.0824559 -8.36814
1489731 1 149.773 159.319 315.111 0.391263 -8.39478
1475571 1 149.687 162.404 314.997 0.158292 -8.1559
3231771 1 149.803 152.858 318.429 0.086374 -7.52756
1504010 1 146.522 156.107 318.294 0.351817 -7.82233
1518652 1 149.805 159.329 318.299 0.227616 -8.32718
3319381 1 184.054 184.714 340.865 0.148378 -6.69828
3348760 1 114.519 202.593 347.017 0.0316583 -6.74827
3348879 1 111.199 205.775 347.124 0.28171 -6.88987
3421365 1 132.157 218.107 363.223 0.187287 -6.314
2498211 1 149.713 181.661 162.491 0.178454 -6.61585
811381 1 181.796 119.402 168.836 0.0158687 -6.72105
2556292 1 149.486 188.07 169.021 0.0479054 -7.45706
841267 1 199.177 147.97 173.497 0.156381 -6.72408
826985 1 194.687 153.021 172.092 0.0778105 -6.83838
827106 1 197.856 156.444 172.182 0.389863 -6.24762
856370 1 146.624 168.899 178.753 0.0222334 -6.4369
856744 1 191.601 176.551 178.406 0.0280411 -6.83713
1072382 1 184.965 169.004 226.281 0.0807133 -6.68833
1086294 1 157.979 154.502 230.658 0.130112 -6.46124
1086902 1 184.974 172.378 229.307 0.255469 -7.4088
1114131 1 147.784 131.677 236.136 0.0233115 -6.89977
1129740 1 180.011 159.114 236.976 0.290162 -7.12904
2857739 1 176.684 162.915 237.101 0.0496592 -7.51065
1129741 1 178.829 164.22 235.812 0.0718175 -7.6646
2914855 1 160.925 149.777 253.019 0.336183 -7.33927
1201375 1 161.045 153.203 252.797 0.0731901 -7.6248
1215775 1 161.154 153.069 256.381 0.132825 -7.18913
2943656 1 164.229 152.846 256.322 0.136501 -7.41294
2943897 1 167.13 156.479 256.306 0.343003 -7.23362
1230177 1 167.239 152.962 259.667 0.0248908 -7.30628
1302179 1 175.476 153.261 275.107 0.128017 -6.77292
1347047 1 135.234 197.432 285.016 0.22248 -6.27012
3144775 1 155.952 143.181 304.006 0.0769081 -7.09121
1432012 1 151.265 157.748 304.029 0.0286967 -8.057
1432251 1 147.991 160.643 304.228 0.114298 -6.91695
1474974 1 154.468 151.295 307.554 0.0873677 -8.17512
1460812 1 151.3 157.599 307.447 0.130662 -8.43541
1446532 1 148.329 160.857 307.366 0.152779 -8.234
1432131 1 151.292 160.942 307.319 0.228776 -8.19729
1446053 1 154.34 151.495 310.608 0.270191 -8.5472
3188931 1 151.3 157.656 310.419 0.00168842 -8.18558
1461052 1 148.118 160.764 310.524 0.052452 -8.48162
3188930 1 151.261 160.812 310.523 0.0302013 -8.63584
1475092 1 151.251 154.711 313.688 0.0715812 -8.5766
3188452 1 154.621 154.576 313.493 0.144548 -8.34908
3217251 1 151.113 151.105 316.815 0.250807 -7.77324
3217490 1 148.208 154.354 317.083 0.0490744 -8.33966
3217492 1 151.392 157.628 316.923 0.264588 -8.57995
1503300 1 176.544 138.366 320.014 0.0700066 -6.74967
1517820 1 176.291 141.6 323.066 0.0141097 -6.7828
1531613 1 154.297 125.587 326.649 0.457702 -5.7884
1575889 1 141.97 153.992 337.736 0.0497136 -5.14304
3290329 1 138.093 178.7 338.872 0.00222575 -6.98671
1691580 1 175.895 167.233 361.8 0.130211 -6.00467
1693116 1 98.9378 208.61 360.528 0.784923 -6.12417
