ITEM: TIMESTEP
89000
ITEM: NUMBER OF ATOMS
47
ITEM: BOX BOUNDS pp pp pp
0 360
0 360
0 360
ITEM: ATOMS id type x y z
483295 1 162.75 201.75 99.75
568865 1 192.75 180.75 117.75
655757 1 228.75 192.75 135.75
668351 1 210.75 147.75 138.75
668352 1 213.75 147.75 138.75
670271 1 210.75 195.75 138.75
682631 1 210.75 144.75 141.75
682873 1 216.75 150.75 141.75
697392 1 213.75 153.75 144.75
697393 1 216.75 153.75 144.75
697512 1 213.75 156.75 144.75
697514 1 219.75 156.75 144.75
711790 1 207.75 153.75 147.75
711912 1 213.75 156.75 147.75
712033 1 216.75 159.75 147.75
767340 1 177.75 102.75 159.75
870306 1 195.75 156.75 180.75
871136 1 165.75 177.75 180.75
983466 1 195.75 105.75 204.75
1015144 1 189.75 177.75 210.75
1072849 1 144.75 180.75 222.75
2312104 1 191.25 203.25 122.25
2352049 1 146.25 122.25 131.25
2366937 1 170.25 134.25 134.25
2396351 1 212.25 149.25 140.25
2396352 1 215.25 149.25 140.25
2396353 1 218.25 149.25 140.25
2397433 1 218.25 176.25 140.25
2410752 1 215.25 149.25 143.25
2410871 1 212.25 152.25 143.25
2410872 1 215.25 152.25 143.25
2412669 1 206.25 197.25 143.25
2425271 1 212.25 152.25 146.25
2425390 1 209.25 155.25 146.25
2425391 1 212.25 155.25 146.25
2425393 1 218.25 155.25 146.25
2425512 1 215.25 158.25 146.25
2426356 1 227.25 179.25 146.25
2439791 1 212.25 155.25 149.25
2440032 1 215.25 161.25 149.25
2440033 1 218.25 161.25 149.25
2452486 1 137.25 113.25 152.25
2454680 1 239.25 167.25 152.25
2481073 1 218.25 107.25 158.25
2509264 1 191.25 92.25 164.25
2568556 1 227.25 134.25 176.25
2584622 1 185.25 176.25 179.25
