ITEM: TIMESTEP
88522
ITEM: NUMBER OF ATOMS
57
ITEM: BOX BOUNDS pp pp pp
0 360
0 360
0 360
ITEM: ATOMS id type x y z
725923 1 126.75 147.75 150.75
740802 1 123.75 159.75 153.75
754963 1 126.75 153.75 156.75
755081 1 120.75 156.75 156.75
769360 1 117.75 153.75 159.75
783528 1 141.75 147.75 162.75
783647 1 138.75 150.75 162.75
784240 1 117.75 165.75 162.75
798039 1 114.75 150.75 165.75
827575 1 162.75 168.75 171.75
841611 1 150.75 159.75 174.75
1028704 1 189.75 156.75 213.75
1060272 1 213.75 225.75 219.75
1100585 1 192.75 153.75 228.75
1101067 1 198.75 165.75 228.75
1117998 1 231.75 228.75 231.75
1129509 1 204.75 156.75 234.75
1130346 1 195.75 177.75 234.75
1187346 1 195.75 162.75 246.75
1190473 1 216.75 240.75 246.75
1201146 1 195.75 147.75 249.75
1204989 1 204.75 243.75 249.75
1219035 1 222.75 234.75 252.75
1248435 1 222.75 249.75 258.75
1259341 1 180.75 162.75 261.75
2425957 1 110.25 170.25 146.25
2468197 1 110.25 146.25 155.25
2468439 1 116.25 152.25 155.25
2468556 1 107.25 155.25 155.25
2482603 1 128.25 146.25 158.25
2482723 1 128.25 149.25 158.25
2483083 1 128.25 158.25 158.25
2496643 1 128.25 137.25 161.25
2497368 1 143.25 155.25 161.25
2497481 1 122.25 158.25 161.25
2511523 1 128.25 149.25 164.25
2526163 1 128.25 155.25 167.25
2526526 1 137.25 164.25 167.25
2671251 1 152.25 182.25 197.25
2685900 1 179.25 188.25 200.25
2727303 1 188.25 143.25 209.25
2742308 1 203.25 158.25 212.25
2786345 1 194.25 179.25 221.25
2786452 1 155.25 182.25 221.25
2816354 1 221.25 209.25 227.25
2874557 1 230.25 224.25 239.25
2875633 1 218.25 251.25 239.25
2904553 1 218.25 254.25 245.25
2915709 1 206.25 173.25 248.25
2918598 1 233.25 245.25 248.25
2929264 1 191.25 152.25 251.25
2943785 1 194.25 155.25 254.25
2944628 1 203.25 176.25 254.25
2944629 1 206.25 176.25 254.25
2958546 1 197.25 164.25 257.25
2959029 1 206.25 176.25 257.25
2972943 1 188.25 164.25 260.25
