ITEM: TIMESTEP
93558
ITEM: NUMBER OF ATOMS
74
ITEM: BOX BOUNDS pp pp pp
0 360
0 360
0 360
ITEM: ATOMS id type x y z
826028 1 201.75 129.75 171.75
870410 1 147.75 159.75 180.75
870534 1 159.75 162.75 180.75
883484 1 129.75 126.75 183.75
884574 1 159.75 153.75 183.75
884693 1 156.75 156.75 183.75
884695 1 162.75 156.75 183.75
899334 1 159.75 162.75 186.75
941601 1 240.75 138.75 195.75
955986 1 195.75 138.75 198.75
1014545 1 192.75 162.75 210.75
1014562 1 243.75 162.75 210.75
1054755 1 222.75 87.75 219.75
1070597 1 228.75 123.75 222.75
1156161 1 240.75 102.75 240.75
1199711 1 210.75 111.75 249.75
1200072 1 213.75 120.75 249.75
1214350 1 207.75 117.75 252.75
1214592 1 213.75 123.75 252.75
1228508 1 201.75 111.75 255.75
1228628 1 201.75 114.75 255.75
1228629 1 204.75 114.75 255.75
1228632 1 213.75 114.75 255.75
1228750 1 207.75 117.75 255.75
1228753 1 216.75 117.75 255.75
1228870 1 207.75 120.75 255.75
1243149 1 204.75 117.75 258.75
1243150 1 207.75 117.75 258.75
1243152 1 213.75 117.75 258.75
1243269 1 204.75 120.75 258.75
1285385 1 192.75 93.75 267.75
1285504 1 189.75 96.75 267.75
2424415 1 164.25 131.25 146.25
2438816 1 167.25 131.25 149.25
2512007 1 140.25 161.25 164.25
2525327 1 140.25 134.25 167.25
2571066 1 197.25 197.25 176.25
2583774 1 161.25 155.25 179.25
2583893 1 158.25 158.25 179.25
2584009 1 146.25 161.25 179.25
2598292 1 155.25 158.25 182.25
2612695 1 164.25 158.25 185.25
2627094 1 161.25 158.25 188.25
2653776 1 287.25 104.25 194.25
2656397 1 230.25 170.25 194.25
2728372 1 155.25 170.25 209.25
2757193 1 218.25 170.25 215.25
2771473 1 218.25 167.25 218.25
2771592 1 215.25 170.25 218.25
2797640 1 239.25 101.25 224.25
2828803 1 128.25 161.25 230.25
2828822 1 185.25 161.25 230.25
2840730 1 269.25 98.25 233.25
2844318 1 233.25 188.25 233.25
2913554 1 221.25 119.25 248.25
2915838 1 233.25 176.25 248.25
2927834 1 221.25 116.25 251.25
2927952 1 215.25 119.25 251.25
2927953 1 218.25 119.25 251.25
2927955 1 224.25 119.25 251.25
2928074 1 221.25 122.25 251.25
2942108 1 203.25 113.25 254.25
2942111 1 212.25 113.25 254.25
2942229 1 206.25 116.25 254.25
2942351 1 212.25 119.25 254.25
2942354 1 221.25 119.25 254.25
2956628 1 203.25 116.25 257.25
2956629 1 206.25 116.25 257.25
2956633 1 218.25 116.25 257.25
2971032 1 215.25 116.25 260.25
3029468 1 203.25 137.25 272.25
3031510 1 209.25 188.25 272.25
3043748 1 203.25 134.25 275.25
3199023 1 188.25 56.25 308.25
