ITEM: TIMESTEP
87000
ITEM: NUMBER OF ATOMS
70
ITEM: BOX BOUNDS pp pp pp
0 360
0 360
0 360
ITEM: ATOMS id type x y z c_myKE c_myPE
2383368 1 142.19 186.702 133.565 0.0399476 -6.91142
2495821 1 181.626 113.361 158.831 0.0875901 -7.59336
2495940 1 178.442 116.387 159.028 0.227369 -8.62314
2495941 1 181.566 116.332 159.412 0.179363 -7.77557
2495585 1 196.354 106.843 161.109 0.174151 -6.22705
796739 1 175.246 116.272 162.068 0.0334195 -8.01493
2510460 1 178.562 119.536 162.401 0.0651157 -8.12528
2524979 1 175.072 119.406 165.496 0.368359 -8.23837
2524740 1 178.389 119.378 165.371 0.109025 -8.62068
2539381 1 181.235 122.703 168.678 0.263782 -7.6199
2539980 1 180.095 138.755 168.616 0.254545 -5.94263
2550299 1 174.976 28.2959 171.868 0.0702049 -5.88619
2567226 1 196.272 93.8527 175.108 0.0686548 -6.54323
2556417 1 168.525 192.736 173.344 0.344363 -5.53974
2567835 1 228.033 111.06 177.018 0.0907012 -6.38266
2584256 1 165.718 164.473 180.477 0.120409 -6.62272
2655880 1 113.531 157.554 197.006 0.060449 -6.28269
2702082 1 122.685 235.444 203.408 0.183542 -5.71049
2696824 1 191.43 97.3302 205.734 0.0376806 -6.32205
985983 1 184.789 170.671 207.285 0.0575714 -5.70562
2701978 1 173.845 234.316 205.797 0.0305811 -6.67789
2770859 1 177.17 152.257 219.788 0.256235 -7.00854
2783225 1 196.167 97.3759 224.423 0.210014 -6.62788
2801208 1 139.734 190.64 226.033 0.0899325 -6.88084
2874183 1 187.823 218.882 242.004 0.216416 -6.88899
2874533 1 156.18 225.634 242.231 0.019361 -6.05746
1175334 1 155.832 222.868 245.44 0.0155511 -6.7429
1175572 1 152.724 225.936 244.902 0.129934 -6.92111
2932128 1 142.08 227.863 254.816 0.14984 -6.52747
2961166 1 136.944 232.491 256.953 0.162622 -8.07578
1204607 1 138.641 234.29 258.219 0.204711 -8.18533
1218890 1 141.871 234.35 258.033 0.0417121 -7.01014
2977019 1 175.196 272.691 266.009 0.0112008 -5.74257
3091127 1 138.754 243.816 291.716 0.0627185 -7.66956
3106347 1 72.9851 266.335 295.094 0.114752 -7.12435
680593 1 220.174 89.463 138.535 0.0778243 -6.37469
767822 1 183.252 111.579 157.428 0.0232134 -6.70757
782340 1 176.958 114.633 160.696 0.264115 -7.79373
782460 1 176.894 117.858 160.815 0.105428 -8.61651
782461 1 179.861 117.839 160.889 0.326042 -8.09069
796859 1 173.815 117.822 163.799 0.00953924 -7.94445
2510339 1 176.773 117.753 163.886 0.0176549 -8.69557
811259 1 173.639 117.968 167.056 0.0557496 -8.08819
811380 1 176.879 121.025 166.93 0.253489 -8.10451
811381 1 180.002 120.954 167.125 0.147611 -8.21744
2539260 1 176.62 117.727 170.136 0.404872 -8.04323
825779 1 170.379 121.065 170.42 0.157049 -7.60508
825780 1 173.552 121.162 170.108 0.403757 -7.56947
2539261 1 179.788 121.116 170.243 0.297528 -7.51199
2568179 1 173.612 120.994 173.332 0.0514252 -6.6292
941226 1 195.066 127.157 194.307 0.0640597 -6.35977
2669465 1 195.909 130.913 197.506 0.461533 -7.4412
2699813 1 157.518 175.193 202.237 0.179825 -6.35953
971925 1 128.678 178.528 204.124 0.142506 -5.81079
1040705 1 194.797 92.5605 219.918 0.310148 -6.8303
1041654 1 159.464 116.212 219.912 0.0598857 -6.57186
2816214 1 165.725 210.367 227.668 0.061167 -7.673
1088337 1 168.901 210.383 227.747 0.0985633 -6.69541
1102976 1 165.857 210.076 230.647 0.304191 -6.38004
1160692 1 151.399 221.295 240.63 0.259889 -7.02441
1204488 1 140.667 229.546 253.025 0.188078 -7.23326
1218648 1 137.27 229.41 256.393 0.0841021 -7.57712
2917849 1 140.018 232.676 256.398 0.00902336 -7.54202
1261381 1 180.02 214.988 267.901 0.0704378 -6.45101
1261502 1 182.815 218.092 268.498 0.494565 -7.10467
3004375 1 162.73 235.999 269.202 0.0190022 -7.04636
1290775 1 162.983 232.589 272.055 0.14157 -6.84448
1377647 1 137.29 245.506 293.279 0.172246 -7.47755
1406689 1 141.742 249.665 299.977 0.0563304 -7.03249
1421088 1 138.491 250.255 302.893 0.0342833 -6.89444
