ITEM: TIMESTEP
90581
ITEM: NUMBER OF ATOMS
49
ITEM: BOX BOUNDS pp pp pp
0 360
0 360
0 360
ITEM: ATOMS id type x y z
697009 1 144.75 144.75 144.75
702026 1 75.75 270.75 144.75
716431 1 90.75 270.75 147.75
742715 1 102.75 207.75 153.75
771175 1 162.75 198.75 159.75
785567 1 138.75 198.75 162.75
786386 1 75.75 219.75 162.75
787109 1 84.75 237.75 162.75
799373 1 156.75 183.75 165.75
800666 1 75.75 216.75 165.75
814593 1 96.75 204.75 168.75
827813 1 156.75 174.75 171.75
828056 1 165.75 180.75 171.75
831752 1 93.75 273.75 171.75
832597 1 108.75 294.75 171.75
843291 1 150.75 201.75 174.75
856607 1 138.75 174.75 177.75
856858 1 171.75 180.75 177.75
858035 1 102.75 210.75 177.75
958459 1 54.75 201.75 198.75
959067 1 78.75 216.75 198.75
972386 1 75.75 189.75 201.75
1001423 1 66.75 195.75 207.75
1044739 1 54.75 198.75 216.75
2429788 1 83.25 266.25 146.25
2470713 1 98.25 209.25 155.25
2473473 1 98.25 278.25 155.25
2502395 1 104.25 281.25 161.25
2514748 1 83.25 230.25 164.25
2527136 1 167.25 179.25 167.25
2527610 1 149.25 191.25 167.25
2529391 1 92.25 236.25 167.25
2540572 1 155.25 155.25 170.25
2541653 1 158.25 182.25 170.25
2542729 1 146.25 209.25 170.25
2543537 1 50.25 230.25 170.25
2543539 1 56.25 230.25 170.25
2543550 1 89.25 230.25 170.25
2543908 1 83.25 239.25 170.25
2555812 1 155.25 176.25 173.25
2557483 1 128.25 218.25 173.25
2557951 1 92.25 230.25 173.25
2570572 1 155.25 185.25 176.25
2584858 1 173.25 182.25 179.25
2584978 1 173.25 185.25 179.25
2585693 1 158.25 203.25 179.25
2599739 1 176.25 194.25 182.25
2599855 1 164.25 197.25 182.25
2615066 1 77.25 218.25 185.25
