ITEM: TIMESTEP
86000
ITEM: NUMBER OF ATOMS
91
ITEM: BOX BOUNDS pp pp pp
0 360
0 360
0 360
ITEM: ATOMS id type x y z c_myKE c_myPE
2396907 1 75.1477 164.145 138.485 0.114628 -5.41393
2409050 1 148.18 101.481 141.596 0.446413 -7.93991
2409171 1 151.748 105.186 141.713 0.248756 -8.11783
2423570 1 148.233 107.245 143.478 0.185208 -7.90952
2424067 1 200.509 117.595 142.987 0.359007 -6.90279
2426330 1 148.162 178.283 143.244 0.195419 -7.0763
2411937 1 168.901 180.179 142.065 0.226493 -7.66807
2412056 1 165.533 183.433 142.064 0.0437527 -7.06096
709972 1 149.85 103.453 145.227 0.0624516 -7.90722
2426092 1 152.855 173.547 145.224 0.236586 -8.47582
2426093 1 155.928 173.453 145.147 0.234338 -8.53701
2426211 1 149.901 176.946 145.034 0.127373 -8.36246
698332 1 152.751 176.806 144.987 0.0385852 -8.08753
2426217 1 168.959 176.986 144.902 0.540541 -8.18946
2426218 1 171.885 177.015 144.957 0.0923078 -8.42407
2426336 1 165.382 179.979 145.08 0.284912 0
2426337 1 168.79 179.869 145.077 0.122195 -8.64968
2426338 1 171.98 180.054 144.994 0.329347 -8.29383
2426457 1 168.717 183.153 144.929 0.0200297 -8.04766
2440374 1 158.992 170.35 148.214 0.0794977 -8.06067
2440378 1 171.71 170.726 148.028 0.176179 -8.16226
727019 1 171.812 173.506 148.089 0.400279 -8.22178
2440616 1 165.512 176.745 148.202 0.239184 -8.60583
2454655 1 162.262 167.288 151.263 0.228588 -8.66709
2454656 1 165.398 167.326 151.286 0.0520347 -8.66521
2454870 1 82.679 171.821 151.286 0.305773 -6.61506
2454776 1 165.338 170.641 151.159 0.351076 -8.5224
2454777 1 168.562 170.506 151.148 0.100903 -8.23309
2454896 1 165.65 173.617 151.539 0.280409 -8.18739
755337 1 165.554 161.014 154.246 0.155945 -8.71588
755335 1 168.582 160.99 154.306 0.1178 -8.41306
769856 1 171.816 161.078 154.716 0.0713466 -7.14363
2454535 1 159.137 164.137 154.51 0.250537 -8.66301
2468699 1 165.353 164.027 154.353 0.0393452 -8.54713
2483217 1 168.804 164.285 154.328 0.634708 -8.16778
2469150 1 82.6562 168.828 154.724 0.312931 -7.612
2469171 1 152.812 167.533 154.433 0.15171 -8.01938
2468931 1 155.964 167.219 154.581 0.0350166 -8.36232
2469056 1 165.495 167.358 154.305 0.121069 -8.24284
769854 1 158.982 157.883 157.655 0.235056 -7.92195
2482978 1 162.085 157.792 157.613 0.103281 -8.06359
769615 1 165.468 157.762 157.724 0.321003 -8.19277
2483334 1 159.229 160.953 157.553 0.197175 -8.5867
2497493 1 162.282 161.036 157.524 0.0273157 -8.60685
798416 1 162.539 157.835 161.203 0.225051 -7.36846
798655 1 165.525 160.832 160.879 0.250146 -7.83759
2555582 1 184.556 170.633 173.848 0.677641 -7.16961
2581856 1 167.666 103.699 180.319 0.0472692 -6.99754
2596015 1 164.5 97.4429 183.403 0.0537681 -7.54123
2596136 1 167.664 100.408 183.475 0.117429 -7.57846
2596256 1 167.411 103.38 183.136 0.153875 -8.3895
2596375 1 164.313 106.504 183.402 0.240489 -6.70219
2614848 1 142.035 215.232 184.889 0.145311 -6.62953
2610535 1 164.014 100.247 186.674 0.147592 -7.23696
986569 1 145.241 186.572 207.234 0.109092 -6.72666
625263 1 186.59 147.746 127.301 0.0101342 -6.21495
638817 1 167.403 125.615 130.737 0.0594846 -6.18252
667021 1 181.968 109.95 135.241 0.0530292 -6.61529
2411812 1 151.384 178.642 143.505 0.104568 -8.03222
712493 1 154.335 171.78 146.63 0.136072 -8.08357
712494 1 157.475 172.033 146.674 0.0364703 -8.33102
712614 1 157.569 175.148 146.495 0.401908 -7.80887
712618 1 170.314 175.218 146.588 0.0875085 -8.84231
712619 1 173.498 175.259 146.497 0.214396 -7.68013
2440254 1 157.475 165.688 149.693 0.0677918 -8.47739
2440351 1 87.178 170.443 149.981 0.228719 -6.95772
726773 1 154.462 168.862 149.953 0.0751686 -8.27317
726774 1 157.412 168.856 149.713 0.149797 -8.41626
2454654 1 160.623 168.759 149.683 0.125127 -8.52078
726776 1 163.741 168.94 149.509 0.215451 -8.46372
726892 1 151.42 172.413 149.573 0.0690399 -8.08276
726893 1 154.529 172.145 149.715 0.450832 -8.45757
727017 1 167.086 175.051 149.725 0.3435 -8.44969
2468816 1 163.89 162.524 152.676 0.600347 -8.82484
2469055 1 160.717 165.581 152.944 0.0116739 -8.66141
741056 1 163.903 165.701 152.721 0.029188 -8.82998
741173 1 157.714 168.887 152.912 0.41323 -8.72383
741177 1 166.951 168.983 152.783 0.490595 -8.11428
2468815 1 167.017 159.434 156.283 0.0837529 -8.03136
769497 1 170.331 159.464 156.073 0.208626 -8.12275
2468813 1 157.59 162.609 156.165 0.402078 -7.89769
2468933 1 160.848 162.537 155.992 0.156571 -8.64359
755691 1 154.516 165.72 156.053 0.0536277 -8.27102
2481653 1 160.923 117.959 159.816 0.13325 -6.29016
827703 1 186.326 172.256 172.298 0.456314 -6.4343
868376 1 165.936 105.286 181.701 0.00746157 -7.89127
882656 1 165.792 101.968 184.851 0.0798686 -8.11595
882776 1 165.865 104.887 184.759 0.0636172 -8.05128
911919 1 109.994 113.352 192.056 0.217766 -5.54695
986690 1 144.96 189.597 204.13 0.154686 -5.93998
2728969 1 140.302 188.658 208.772 0.0925745 -6.83859
