ITEM: TIMESTEP
88574
ITEM: NUMBER OF ATOMS
93
ITEM: BOX BOUNDS pp pp pp
0 360
0 360
0 360
ITEM: ATOMS id type x y z
697969 1 144.75 168.75 144.75
769371 1 150.75 153.75 159.75
797933 1 156.75 147.75 165.75
798060 1 177.75 150.75 165.75
813065 1 192.75 165.75 168.75
813290 1 147.75 171.75 168.75
827218 1 171.75 159.75 171.75
841134 1 159.75 147.75 174.75
841260 1 177.75 150.75 174.75
841375 1 162.75 153.75 174.75
841494 1 159.75 156.75 174.75
841495 1 162.75 156.75 174.75
841496 1 165.75 156.75 174.75
841622 1 183.75 159.75 174.75
841857 1 168.75 165.75 174.75
855534 1 159.75 147.75 177.75
855656 1 165.75 150.75 177.75
855657 1 168.75 150.75 177.75
855894 1 159.75 156.75 177.75
855895 1 162.75 156.75 177.75
855896 1 165.75 156.75 177.75
856135 1 162.75 162.75 177.75
856620 1 177.75 174.75 177.75
869691 1 150.75 141.75 180.75
869815 1 162.75 144.75 180.75
870055 1 162.75 150.75 180.75
870056 1 165.75 150.75 180.75
870539 1 174.75 162.75 180.75
870661 1 180.75 165.75 180.75
870901 1 180.75 171.75 180.75
872084 1 129.75 201.75 180.75
884094 1 159.75 141.75 183.75
884214 1 159.75 144.75 183.75
884937 1 168.75 162.75 183.75
885418 1 171.75 174.75 183.75
886014 1 159.75 189.75 183.75
913626 1 195.75 159.75 189.75
915642 1 123.75 210.75 189.75
915658 1 171.75 210.75 189.75
924882 1 123.75 81.75 192.75
927535 1 162.75 147.75 192.75
928256 1 165.75 165.75 192.75
941096 1 165.75 126.75 195.75
941692 1 153.75 141.75 195.75
2483340 1 179.25 164.25 158.25
2512141 1 182.25 164.25 164.25
2512488 1 143.25 173.25 164.25
2526417 1 170.25 161.25 167.25
2528442 1 125.25 212.25 167.25
2540696 1 167.25 158.25 170.25
2541059 1 176.25 167.25 170.25
2552922 1 125.25 104.25 173.25
2554011 1 152.25 131.25 173.25
2554497 1 170.25 143.25 173.25
2554735 1 164.25 149.25 173.25
2554736 1 167.25 149.25 173.25
2554738 1 173.25 149.25 173.25
2554975 1 164.25 155.25 173.25
2555337 1 170.25 164.25 173.25
2555342 1 185.25 164.25 173.25
2555692 1 155.25 173.25 173.25
2557376 1 167.25 215.25 173.25
2568891 1 152.25 143.25 176.25
2569020 1 179.25 146.25 176.25
2569374 1 161.25 155.25 176.25
2569375 1 164.25 155.25 176.25
2569494 1 161.25 158.25 176.25
2569495 1 164.25 158.25 176.25
2569742 1 185.25 164.25 176.25
2569854 1 161.25 167.25 176.25
2569855 1 164.25 167.25 176.25
2583535 1 164.25 149.25 179.25
2583536 1 167.25 149.25 179.25
2583656 1 167.25 152.25 179.25
2583893 1 158.25 158.25 179.25
2583898 1 173.25 158.25 179.25
2584254 1 161.25 167.25 179.25
2585924 1 131.25 209.25 179.25
2597934 1 161.25 149.25 182.25
2598056 1 167.25 152.25 182.25
2612336 1 167.25 149.25 185.25
2612934 1 161.25 164.25 185.25
2629375 1 164.25 215.25 188.25
2638122 1 125.25 74.25 191.25
2640889 1 146.25 143.25 191.25
2641374 1 161.25 155.25 191.25
2641738 1 173.25 164.25 191.25
2653601 1 122.25 101.25 194.25
2653721 1 122.25 104.25 194.25
2655057 1 170.25 137.25 194.25
2683493 1 158.25 128.25 200.25
2710362 1 125.25 80.25 206.25
2741812 1 155.25 146.25 212.25
