ITEM: TIMESTEP
86846
ITEM: NUMBER OF ATOMS
92
ITEM: BOX BOUNDS pp pp pp
0 360
0 360
0 360
ITEM: ATOMS id type x y z
322266 1 195.75 135.75 66.75
393316 1 225.75 111.75 81.75
436995 1 222.75 123.75 90.75
450913 1 216.75 111.75 93.75
451394 1 219.75 123.75 93.75
552538 1 171.75 132.75 114.75
668358 1 231.75 147.75 138.75
682638 1 231.75 144.75 141.75
682759 1 234.75 147.75 141.75
713953 1 216.75 207.75 147.75
714072 1 213.75 210.75 147.75
756783 1 186.75 198.75 156.75
768904 1 189.75 141.75 159.75
771184 1 189.75 198.75 159.75
771303 1 186.75 201.75 159.75
785848 1 261.75 204.75 162.75
796851 1 150.75 120.75 165.75
799616 1 165.75 189.75 165.75
813668 1 201.75 180.75 168.75
827586 1 195.75 168.75 171.75
827707 1 198.75 171.75 171.75
827828 1 201.75 174.75 171.75
827947 1 198.75 177.75 171.75
827948 1 201.75 177.75 171.75
840413 1 156.75 129.75 174.75
841987 1 198.75 168.75 174.75
842107 1 198.75 171.75 174.75
842227 1 198.75 174.75 174.75
842228 1 201.75 174.75 174.75
842349 1 204.75 177.75 174.75
842469 1 204.75 180.75 174.75
856387 1 198.75 168.75 177.75
868486 1 135.75 111.75 180.75
882887 1 138.75 111.75 183.75
883147 1 198.75 117.75 183.75
883266 1 195.75 120.75 183.75
884585 1 192.75 153.75 183.75
884586 1 195.75 153.75 183.75
897288 1 141.75 111.75 186.75
897667 1 198.75 120.75 186.75
898986 1 195.75 153.75 186.75
898987 1 198.75 153.75 186.75
899106 1 195.75 156.75 186.75
913505 1 192.75 156.75 189.75
1057626 1 195.75 159.75 219.75
1129500 1 177.75 156.75 234.75
1129619 1 174.75 159.75 234.75
1144138 1 171.75 162.75 237.75
1173306 1 195.75 171.75 243.75
2138354 1 221.25 179.25 86.25
2150595 1 224.25 125.25 89.25
2164513 1 218.25 113.25 92.25
2164877 1 230.25 122.25 92.25
2165115 1 224.25 128.25 92.25
2178913 1 218.25 113.25 95.25
2179276 1 227.25 122.25 95.25
2179514 1 221.25 128.25 95.25
2222355 1 224.25 119.25 104.25
2282488 1 263.25 182.25 116.25
2296028 1 203.25 161.25 119.25
2367556 1 227.25 149.25 134.25
2368377 1 170.25 170.25 134.25
2381836 1 227.25 146.25 137.25
2427773 1 158.25 215.25 146.25
2440280 1 239.25 167.25 149.25
2499183 1 188.25 200.25 161.25
2510470 1 209.25 122.25 164.25
2524871 1 212.25 122.25 167.25
2524990 1 209.25 125.25 167.25
2541547 1 200.25 179.25 170.25
2555466 1 197.25 167.25 173.25
2555586 1 197.25 170.25 173.25
2555828 1 203.25 176.25 173.25
2555948 1 203.25 179.25 173.25
2569746 1 197.25 164.25 176.25
2569865 1 194.25 167.25 176.25
2569866 1 197.25 167.25 176.25
2569987 1 200.25 170.25 176.25
2570107 1 200.25 173.25 176.25
2570228 1 203.25 176.25 176.25
2584145 1 194.25 164.25 179.25
2598065 1 194.25 152.25 182.25
2626985 1 194.25 155.25 188.25
2627957 1 230.25 179.25 188.25
2628785 1 194.25 200.25 188.25
2643186 1 197.25 200.25 191.25
2698031 1 212.25 131.25 203.25
2741938 1 173.25 149.25 212.25
2743743 1 188.25 194.25 212.25
2771225 1 194.25 161.25 218.25
2857618 1 173.25 161.25 236.25
2901185 1 194.25 170.25 245.25
