ITEM: TIMESTEP
92295
ITEM: NUMBER OF ATOMS
64
ITEM: BOX BOUNDS pp pp pp
0 360
0 360
0 360
ITEM: ATOMS id type x y z c_myKE c_myPE
2154670 1 210.113 229.236 82.5894 0 -6.25375
2243018 1 301.375 282.225 103.639 0 -6.25482
2284495 1 162.256 238.817 113.235 0 -6.25448
671115 1 228.007 226.023 125.98 0 -6.25723
656947 1 200.563 229.224 133.645 0 -6.82768
2373194 1 222.874 298.164 132.367 0 -6.2543
2385066 1 199.251 231.161 135.553 0 -6.81708
684782 1 183.467 200.695 141.77 0 -6.81906
2427061 1 183.308 197.423 145.104 0 -7.58944
2427303 1 189.656 203.408 145.059 0 -7.21948
2427424 1 193.097 206.927 145.067 0 -7.11935
2442939 1 304.402 237.675 146.523 0 -6.54341
2441704 1 192.962 203.663 148.426 0 -7.67101
2470126 1 133.548 194.158 154.717 0 -6.25562
2498453 1 157.821 184.575 159.16 0 -6.2584
798892 1 149.588 170.459 167.735 0 -6.87282
2526772 1 152.615 170.672 167.44 0 -7.04052
800954 1 222.216 220.051 167.049 0 -7.62389
844154 1 219.786 222.946 171.388 0 -7.46517
868863 1 186.646 114.558 178.439 0 -6.54219
884343 1 189.719 145.044 183.433 0 -6.25375
2599371 1 151.437 184.592 183.435 0 -6.25412
2602374 1 159.108 266.362 183.486 0 -7.03486
2615361 1 245.196 226.044 186.615 0 -6.25435
903295 1 158.813 266.15 186.512 0 -6.86994
904382 1 182.029 296.17 186.669 0 -7.24824
2642582 1 186.527 184.565 191.068 0 -6.25518
2632380 1 179.83 297.849 190.193 0 -7.09768
2687820 1 180.14 238.813 200.632 0 -6.82009
2702219 1 176.884 238.69 203.889 0 -6.54592
2700672 1 216.37 197.49 205.607 0 -6.53941
2298661 1 182.993 232.783 111.634 0 -6.25415
2412060 1 181.75 182.987 138.461 0 -6.25637
2399716 1 227.657 232.775 137.154 0 -6.25739
671816 1 163.847 239.162 137.171 0 -6.25156
687071 1 213.655 261.478 138.402 0 -6.25497
701735 1 290.197 265.936 141.588 0 -6.82064
699061 1 181.628 195.706 143.455 0 -6.9194
699303 1 188.009 201.98 143.367 0 -6.9904
2413025 1 194.611 208.628 143.391 0 -6.62163
714805 1 253.177 227.629 144.791 0 -6.25395
700661 1 307.562 237.103 143.36 0 -6.54333
686365 1 250.088 246.685 143.452 0 -6.59236
716134 1 286.943 265.806 144.845 0 -6.55001
713461 1 181.464 195.92 146.647 0 -6.8849
2428642 1 246.784 246.743 146.784 0 -7.53836
2457922 1 250.102 250.062 146.81 0 -6.56008
755106 1 197.704 156.194 154.364 0 -6.25386
759791 1 213.655 278.68 154.351 0 -6.2553
772393 1 218.08 230.848 157.531 0 -6.26066
759537 1 165.807 274.246 156.295 0 -6.25352
814992 1 218.188 217.429 167.64 0 -7.30863
800826 1 197.664 221.241 165.895 0 -6.26154
2543113 1 217.881 221.389 166.238 0 -7.66751
2514194 1 220.404 221.97 166.964 0 -8.00867
815114 1 218.503 223.864 167.217 0 -7.8506
813172 1 151.243 168.935 169.213 0 -7.07196
829284 1 255.114 211.689 170.304 0 -6.25422
815113 1 216.077 221.146 169.208 0 -7.5166
854342 1 185.063 112.789 176.668 0 -6.82658
903293 1 156.123 265.844 186.37 0 -7.04271
2617981 1 180.186 294.332 186.513 0 -7.11279
2618220 1 178.691 301.156 184.942 0 -6.70444
987073 1 217.952 195.72 207.376 0 -6.82391
