ITEM: TIMESTEP
96496
ITEM: NUMBER OF ATOMS
81
ITEM: BOX BOUNDS pp pp pp
0 360
0 360
0 360
ITEM: ATOMS id type x y z
685249 1 144.75 210.75 141.75
685370 1 147.75 213.75 141.75
713482 1 243.75 195.75 147.75
732563 1 246.75 312.75 150.75
732682 1 243.75 315.75 150.75
741157 1 108.75 168.75 153.75
741543 1 186.75 177.75 153.75
742362 1 123.75 198.75 153.75
755705 1 192.75 171.75 156.75
755803 1 126.75 174.75 156.75
755824 1 189.75 174.75 156.75
755944 1 189.75 177.75 156.75
770104 1 189.75 171.75 159.75
770224 1 189.75 174.75 159.75
770225 1 192.75 174.75 159.75
774912 1 213.75 291.75 159.75
826961 1 120.75 153.75 171.75
857446 1 135.75 195.75 177.75
885661 1 180.75 180.75 183.75
886515 1 222.75 201.75 183.75
890360 1 237.75 297.75 183.75
900182 1 183.75 183.75 186.75
904760 1 237.75 297.75 186.75
904880 1 237.75 300.75 186.75
905359 1 234.75 312.75 186.75
915659 1 174.75 210.75 189.75
919639 1 234.75 309.75 189.75
927429 1 204.75 144.75 192.75
928000 1 117.75 159.75 192.75
928121 1 120.75 162.75 192.75
942401 1 120.75 159.75 195.75
956225 1 192.75 144.75 198.75
992243 1 246.75 324.75 204.75
1000512 1 213.75 171.75 207.75
1000633 1 216.75 174.75 207.75
1001116 1 225.75 186.75 207.75
1006644 1 249.75 324.75 207.75
1014793 1 216.75 168.75 210.75
1014912 1 213.75 171.75 210.75
1014913 1 216.75 171.75 210.75
1015033 1 216.75 174.75 210.75
1015034 1 219.75 174.75 210.75
1029194 1 219.75 168.75 213.75
1029313 1 216.75 171.75 213.75
1029314 1 219.75 171.75 213.75
1029435 1 222.75 174.75 213.75
1029436 1 225.75 174.75 213.75
1043596 1 225.75 168.75 216.75
1057996 1 225.75 168.75 219.75
1072277 1 228.75 165.75 222.75
1086675 1 222.75 165.75 225.75
2297325 1 134.25 194.25 119.25
2439296 1 167.25 143.25 149.25
2453697 1 170.25 143.25 152.25
2454637 1 110.25 167.25 152.25
2454783 1 188.25 170.25 152.25
2456347 1 200.25 209.25 152.25
2468917 1 110.25 164.25 155.25
2469038 1 113.25 167.25 155.25
2469182 1 185.25 170.25 155.25
2469303 1 188.25 173.25 155.25
2482482 1 125.25 143.25 158.25
2483702 1 185.25 173.25 158.25
2558229 1 206.25 236.25 173.25
2568764 1 131.25 140.25 176.25
2587641 1 242.25 251.25 179.25
2601921 1 242.25 248.25 182.25
2613058 1 173.25 167.25 185.25
2613177 1 170.25 170.25 185.25
2613661 1 182.25 182.25 185.25
2728512 1 215.25 173.25 209.25
2728633 1 218.25 176.25 209.25
2728635 1 224.25 176.25 209.25
2742913 1 218.25 173.25 212.25
2742914 1 221.25 173.25 212.25
2743034 1 221.25 176.25 212.25
2757194 1 221.25 170.25 215.25
2757314 1 221.25 173.25 215.25
2757315 1 224.25 173.25 215.25
2771596 1 227.25 170.25 218.25
2785876 1 227.25 167.25 221.25
