ITEM: TIMESTEP
87296
ITEM: NUMBER OF ATOMS
90
ITEM: BOX BOUNDS pp pp pp
0 360
0 360
0 360
ITEM: ATOMS id type x y z c_myKE c_myPE
2271551 1 215.364 274.005 109.936 0 -6.51377
2285831 1 215.288 270.737 113.181 0 -6.81937
2383729 1 143.148 194.181 133.595 0 -6.25623
2382418 1 171.85 159.1 135.537 0 -6.25409
2399469 1 210.067 231.219 138.676 0 -6.28233
2428277 1 234.504 232.525 145.056 0 -6.5464
729077 1 234.408 229.26 148.314 0 -6.8459
2483688 1 145.093 173.672 154.608 0 -7.23513
2471930 1 148.264 242.028 154.677 0 -6.25217
2473753 1 219.693 289.866 154.671 0 -6.24975
768900 1 176.995 135.521 157.849 0 -6.25446
826971 1 148.41 149.39 158.226 0 -6.77135
2512609 1 141.87 170.547 157.982 0 -8.13945
2500392 1 221.724 238.874 157.91 0 -8.03877
2500515 1 224.804 238.981 157.956 0 -7.25955
812690 1 148.412 145.463 162.151 0 -6.77624
769373 1 151.653 147.965 160.726 0 -7.05407
784848 1 138.857 177.057 161.085 0 -7.29121
787033 1 218.385 235.713 161.013 0 -8.56095
2486233 1 221.545 238.962 161.079 0 -8.51251
2529311 1 218.327 238.986 164.16 0 -8.29625
2615227 1 202.091 224.499 184.389 0 -7.10585
2612337 1 170.504 148.478 186.472 0 -6.98526
887228 1 202.202 222.814 186.348 0 -7.51166
2615226 1 200.266 224.564 186.249 0 -7.36874
2642819 1 176.82 190.894 191.281 0 -6.74851
918061 1 181.411 273.927 191.013 0 -6.25468
2655418 1 173.637 143.043 194.362 0 -6.55351
2657340 1 180.296 194.27 194.376 0 -7.19662
2668980 1 180.182 122.761 199.323 0 -6.25506
2672587 1 196.075 223.09 199.22 0 -7.14112
2687345 1 192.98 226.147 199.114 0 -7.1172
2701626 1 197.557 224.788 203.863 0 -6.49591
1001463 1 186.65 197.269 207.007 0 -7.06783
2700544 1 191.072 195.997 205.888 0 -6.91787
2787910 1 210.14 221.744 224.906 0 -6.8252
2813225 1 196.082 127.241 231.28 0 -6.25964
2827864 1 192.934 135.519 232.458 0 -6.25381
457033 1 218.095 269.135 87.3397 0 -6.25324
567776 1 163.882 151.123 114.798 0 -6.25347
2384581 1 184.96 216.851 133.946 0 -6.2511
699185 1 192.597 198.968 141.573 0 -6.25541
723411 1 147.931 76.5147 146.684 0 -6.25379
2483567 1 140.346 172.131 156.367 0 -8.09035
755690 1 143.489 172.095 156.361 0 -7.84203
2483930 1 143.41 175.434 156.182 0 -7.8849
771912 1 213.693 221.313 156.301 0 -6.27442
2488514 1 221.271 301.034 157.512 0 -6.27024
2512608 1 140.282 169.088 159.573 0 -7.58684
784728 1 140.248 172.231 159.499 0 -8.367
2498327 1 140.203 175.317 159.174 0 -7.64857
800952 1 216.692 230.971 159.356 0 -7.20267
2514792 1 213.71 234.026 159.47 0 -7.67976
786792 1 216.817 234.034 159.458 0 -8.03055
2500632 1 220.065 237.336 159.41 0 -8.25513
772753 1 223.061 240.685 159.4 0 -7.71606
784488 1 140.299 172.015 162.629 0 -7.18774
787031 1 216.713 234.175 162.623 0 -8.49463
2500631 1 213.731 237.29 162.642 0 -7.77612
787032 1 216.812 237.315 162.577 0 -8.65776
772754 1 219.852 237.417 162.552 0 -8.68281
2514913 1 219.852 240.619 162.526 0 -7.92375
815099 1 173.453 220.053 167.094 0 -6.25346
2529073 1 216.744 237.317 165.829 0 -8.08853
802144 1 189.422 256.431 167.124 0 -7.37199
802264 1 192.505 259.525 165.899 0 -6.28418
816544 1 191.282 256.429 168.982 0 -7.37634
2530143 1 189.424 258.287 168.983 0 -7.37179
884457 1 168.849 150.008 184.815 0 -6.57875
898738 1 172.257 146.697 188.213 0 -6.89236
916148 1 204.074 224.633 188.217 0 -6.96104
913019 1 176.827 143.555 191.222 0 -6.63039
929340 1 178.734 192.796 192.735 0 -7.64381
929459 1 175.393 195.594 192.453 0 -7.21243
939771 1 150.069 87.6432 196.089 0 -7.06493
2667770 1 148.247 89.4646 196.089 0 -7.06508
943740 1 178.511 192.559 195.707 0 -7.15139
2643800 1 240.47 217.986 195.847 0 -6.35373
939650 1 146.828 86.2244 198.593 0 -6.77853
955731 1 149.864 128.794 198.957 0 -6.26065
971322 1 119.225 162.639 202.158 0 -6.25449
959225 1 194.365 221.148 200.798 0 -7.45575
973745 1 191.533 224.664 200.868 0 -7.29067
984536 1 163.886 128.796 205.347 0 -6.25887
2715063 1 188.019 199.001 205.247 0 -7.0879
987905 1 192.462 219.942 205.47 0 -7.28947
1002185 1 192.565 216.663 208.68 0 -6.66957
2701503 1 188.056 221.417 207.404 0 -6.61693
1000990 1 208.561 184.922 210.529 0 -6.25902
1060031 1 211.91 223.33 223.136 0 -6.54175
