ITEM: TIMESTEP
88242
ITEM: NUMBER OF ATOMS
64
ITEM: BOX BOUNDS pp pp pp
0 360
0 360
0 360
ITEM: ATOMS id type x y z
725209 1 144.75 129.75 150.75
754370 1 147.75 138.75 156.75
754492 1 153.75 141.75 156.75
768888 1 141.75 141.75 159.75
783172 1 153.75 138.75 162.75
798051 1 150.75 150.75 165.75
826970 1 147.75 153.75 171.75
884570 1 147.75 153.75 183.75
943490 1 147.75 186.75 195.75
956073 1 96.75 141.75 198.75
956318 1 111.75 147.75 198.75
956443 1 126.75 150.75 198.75
986189 1 84.75 174.75 204.75
987064 1 189.75 195.75 204.75
1000980 1 177.75 183.75 207.75
1044547 1 198.75 192.75 216.75
1044903 1 186.75 201.75 216.75
1057235 1 102.75 150.75 219.75
1057351 1 90.75 153.75 219.75
1073466 1 195.75 195.75 222.75
1085555 1 102.75 138.75 225.75
1102498 1 171.75 201.75 228.75
1114715 1 102.75 147.75 231.75
1117145 1 192.75 207.75 231.75
1146424 1 189.75 219.75 237.75
1175216 1 165.75 219.75 243.75
1189499 1 174.75 216.75 246.75
1218059 1 174.75 210.75 252.75
1218179 1 174.75 213.75 252.75
1218420 1 177.75 219.75 252.75
1218661 1 180.75 225.75 252.75
1248072 1 213.75 240.75 258.75
1275660 1 177.75 210.75 264.75
1376340 1 177.75 207.75 285.75
1476178 1 171.75 183.75 306.75
2453451 1 152.25 137.25 152.25
2467615 1 164.25 131.25 155.25
2467850 1 149.25 137.25 155.25
2496531 1 152.25 134.25 161.25
2510929 1 146.25 134.25 164.25
2512613 1 158.25 176.25 164.25
2525212 1 155.25 131.25 167.25
2525690 1 149.25 143.25 167.25
2540448 1 143.25 152.25 170.25
2569732 1 155.25 164.25 176.25
2584488 1 143.25 173.25 179.25
2641603 1 128.25 161.25 191.25
2641848 1 143.25 167.25 191.25
2642931 1 152.25 194.25 191.25
2726680 1 119.25 128.25 209.25
2770714 1 101.25 149.25 218.25
2798793 1 98.25 131.25 224.25
2813553 1 98.25 140.25 227.25
2815736 1 167.25 194.25 227.25
2845263 1 188.25 212.25 233.25
2888694 1 161.25 218.25 242.25
2902380 1 179.25 200.25 245.25
2903217 1 170.25 221.25 245.25
2931652 1 155.25 212.25 251.25
2933711 1 212.25 263.25 251.25
2946173 1 158.25 215.25 254.25
2961055 1 164.25 227.25 257.25
2961915 1 224.25 248.25 257.25
3003898 1 173.25 218.25 266.25
