ITEM: TIMESTEP
88000
ITEM: NUMBER OF ATOMS
64
ITEM: BOX BOUNDS pp pp pp
0 360
0 360
0 360
ITEM: ATOMS id type x y z c_myKE c_myPE
2439532 1 152.742 148.822 148.228 0.095102 -6.85259
2484413 1 155.952 192.767 157.645 0.325818 -7.12429
2498812 1 152.487 192.918 160.717 0.290956 -8.07664
2498813 1 155.745 193.042 160.792 0.0345487 -7.87377
2540318 1 110.038 146.487 168.648 0.064103 -6.70359
2540556 1 103.452 152.724 168.892 0.00656935 -6.69854
2585826 1 199.076 209.748 179.956 0.0461945 -5.6371
2686386 1 197.667 205.443 197.278 0.0457404 -6.79345
2670386 1 71.9865 161.059 199.32 0.191702 -6.47604
957027 1 75.2504 163.988 200.781 0.153482 -7.21919
2700665 1 197.463 202.4 200.682 0.165387 -6.9796
2699795 1 100.348 175.292 205.61 0.184077 -6.63124
2743364 1 127.397 186.433 213.363 0.245388 -6.32122
2757551 1 215.308 178.113 218.307 0.0427644 -6.76637
2857950 1 82.6057 171.209 237.557 0.0188652 -7.16434
2917010 1 146.2 206.963 253.492 0.0633607 -6.54211
2918243 1 251.4 238.521 253.638 0.0643182 -6.72485
2956722 1 120.942 114.32 263.327 0.0559744 -7.32718
2961315 1 227.924 237.287 263.227 0.137163 -6.65552
1288262 1 181.459 163.946 274.06 0.0791269 -6.13834
3061737 1 172.114 226.183 283.364 0.124546 -5.92967
3061877 1 232.552 232.015 285.321 0.147772 -5.55907
3160735 1 164.178 178.433 305.47 0.0826136 -5.82441
3188690 1 146.393 155.817 312.334 0.0937186 -7.23244
3188811 1 149.398 159.366 312.214 0.18375 -7.27255
3188942 1 186.497 162.244 313.787 0.100826 -6.80389
3203343 1 189.674 162.45 317.419 0.204582 -7.37519
725933 1 154.57 147.101 149.576 0.131802 -6.20528
742253 1 154.267 197.523 152.936 0.111965 -6.83028
770934 1 159.249 196.071 157.275 0.231999 -7.61412
2484414 1 157.57 194.665 159.317 0.0943196 -7.95824
771055 1 160.797 197.877 159.141 0.0535806 -7.40323
783900 1 177.071 156.556 162.306 0.0827564 -6.19153
798638 1 106.708 164.081 163.878 0.225777 -7.10255
785213 1 154.325 191.475 162.338 0.162536 -7.51143
813039 1 109.816 163.927 167.172 0.033678 -6.74503
826957 1 105.087 150.999 170.102 0.54019 -7.00353
827195 1 99.0497 157.745 170.394 0.0193169 -6.16428
854809 1 141.729 125.436 178.294 0.103317 -6.61167
944347 1 199.311 210.358 195.774 0.508145 -7.07603
942627 1 73.716 165.42 199.294 0.203597 -7.40161
957159 1 109.971 166.877 199.007 0.0843363 -5.81213
958627 1 198.921 207.099 199.152 0.272501 -7.81915
2684907 1 71.6377 165.731 200.862 0.111179 -6.88058
2686507 1 198.991 204.284 202.244 0.0667252 -7.24362
2713838 1 111.688 164.044 207.013 0.167965 -6.17441
2713000 1 112.557 143.366 211.281 0.436217 -7.08832
2727398 1 108.396 147.703 210.579 0.0539073 -6.76193
1015366 1 132.151 181.627 214.8 0.154413 -6.75187
1042610 1 146.916 141.725 218.268 0.0113064 -6.07462
1030361 1 116.177 198.818 216.994 0.0407358 -6.75722
1113631 1 84.2618 116.34 236.785 0.395947 -6.00204
1233436 1 229.627 239.231 261.657 0.233257 -7.44988
1233557 1 232.965 242.095 261.329 0.46186 -7.11475
1233678 1 235.861 245.337 261.513 0.173667 -6.90937
1247811 1 148.05 237.43 264.638 0.0975305 -6.14719
1288244 1 127.702 163.799 274.002 0.0971133 -6.04875
1318503 1 188.158 204.191 278.73 0.220063 -6.69098
3046382 1 185.34 204.34 281.903 0.186794 -7.13214
1389415 1 162.699 173.62 298.042 0.251474 -6.43783
1418216 1 165.751 173.714 301.014 0.571766 -6.31559
3146215 1 160.685 176.3 301.201 0.185312 -7.0777
1418335 1 162.842 177.194 301.199 0.0484025 -6.4455
1576268 1 205.35 166.177 337.925 0.0717028 -6.8625
