ITEM: TIMESTEP
94000
ITEM: NUMBER OF ATOMS
60
ITEM: BOX BOUNDS pp pp pp
0 360
0 360
0 360
ITEM: ATOMS id type x y z
396335 1 282.75 186.75 81.75
410615 1 282.75 183.75 84.75
512961 1 240.75 222.75 105.75
513080 1 237.75 225.75 105.75
525340 1 297.75 171.75 108.75
539739 1 294.75 171.75 111.75
555223 1 306.75 198.75 114.75
570085 1 252.75 210.75 117.75
584484 1 249.75 210.75 120.75
598539 1 294.75 201.75 123.75
611615 1 282.75 168.75 126.75
611735 1 282.75 171.75 126.75
612785 1 192.75 198.75 126.75
612906 1 195.75 201.75 126.75
624838 1 351.75 138.75 129.75
626135 1 282.75 171.75 129.75
627305 1 192.75 201.75 129.75
640380 1 177.75 168.75 132.75
641825 1 192.75 204.75 132.75
641827 1 198.75 204.75 132.75
641946 1 195.75 207.75 132.75
670626 1 195.75 204.75 138.75
671584 1 189.75 228.75 138.75
671586 1 195.75 228.75 138.75
671705 1 192.75 231.75 138.75
740196 1 105.75 144.75 153.75
754597 1 108.75 144.75 156.75
784020 1 177.75 159.75 162.75
844639 1 234.75 234.75 174.75
844749 1 204.75 237.75 174.75
886026 1 195.75 189.75 183.75
2139096 1 287.25 197.25 86.25
2168248 1 263.25 206.25 92.25
2224678 1 353.25 176.25 104.25
2226561 1 242.25 224.25 104.25
2226680 1 239.25 227.25 104.25
2253066 1 197.25 167.25 110.25
2282820 1 179.25 191.25 116.25
2283564 1 251.25 209.25 116.25
2297963 1 248.25 209.25 119.25
2339616 1 287.25 170.25 128.25
2339734 1 281.25 173.25 128.25
2339735 1 284.25 173.25 128.25
2341025 1 194.25 206.25 128.25
2355304 1 191.25 203.25 131.25
2355545 1 194.25 209.25 131.25
2369585 1 194.25 200.25 134.25
2370664 1 191.25 227.25 134.25
2384105 1 194.25 203.25 137.25
2424879 1 116.25 143.25 146.25
2427199 1 236.25 200.25 146.25
2427816 1 287.25 215.25 146.25
2468680 1 119.25 158.25 155.25
2486350 1 209.25 239.25 158.25
2512913 1 338.25 182.25 164.25
2526659 1 176.25 167.25 167.25
2530027 1 200.25 251.25 167.25
2544428 1 203.25 251.25 170.25
2572748 1 203.25 239.25 176.25
2657240 1 239.25 191.25 194.25
