ITEM: TIMESTEP
89335
ITEM: NUMBER OF ATOMS
68
ITEM: BOX BOUNDS pp pp pp
0 360
0 360
0 360
ITEM: ATOMS id type x y z c_myKE c_myPE
1996508 1 205.668 235.556 46.2157 0 -6.25988
282900 1 176.987 234.37 55.8299 0 -6.25687
2039094 1 161.041 221.615 59.0221 0 -6.25842
340032 1 218.458 222.854 68.5881 0 -6.25727
2126341 1 181.436 243.948 76.2152 0 -6.25733
2153359 1 240.791 196.099 84.5281 0 -6.25359
470237 1 229.29 240.752 94.1019 0 -6.25403
2242254 1 159.122 263.062 101.741 0 -6.82127
2256533 1 157.839 261.148 103.666 0 -6.82023
2270466 1 197.576 246.932 110.215 0 -7.24448
2298680 1 242.047 229.238 116.431 0 -6.25401
682724 1 122.777 146.314 139.992 0 -6.25393
2440261 1 183.414 167.357 148.326 0 -6.25356
2455253 1 152.106 183.917 148.35 0 -7.70054
756051 1 151.153 184.874 152.534 0 -7.45794
741893 1 154.584 185.03 151.892 0 -7.23523
2469892 1 151.232 187.753 152.65 0 -6.76261
2469652 1 154.632 184.232 154.458 0 -7.41596
2511648 1 140.049 151.553 164.191 0 -6.54129
800456 1 164.467 216.382 165.52 0 -7.50478
2528698 1 173.766 222.925 165.716 0 -7.41785
2526047 1 136.792 151.439 167.446 0 -6.82234
829495 1 167.432 219.863 168.783 0 -8.29059
2586418 1 170.492 219.857 168.825 0 -8.72475
2528694 1 170.563 222.939 168.723 0 -8.33174
2571416 1 170.607 216.618 171.804 0 -7.82607
829978 1 173.729 219.879 171.862 0 -8.16123
872218 1 167.461 213.194 175.092 0 -6.94117
872336 1 164.09 209.986 178.452 0 -6.65804
2598308 1 205.717 157.795 181.481 0 -6.81971
899347 1 202.458 157.926 184.734 0 -6.55142
2671146 1 197.435 181.404 196.269 0 -6.90841
2656867 1 199.395 183.342 197.389 0 -7.51357
931981 1 180.195 264.325 196.164 0 -6.25873
2685546 1 199.439 180.031 200.708 0 -6.57663
2801947 1 202.535 210.104 226.121 0 -6.25562
109988 1 202.151 230.846 12.745 0 -6.25549
1967584 1 192.698 236.102 42.8371 0 -6.35436
1982105 1 195.867 239.25 42.7129 0 -6.37549
283504 1 189.378 249.992 49.0772 0 -6.26572
2226541 1 179.925 226.315 95.8259 0 -6.54731
498659 1 176.669 229.571 95.702 0 -6.82147
2241546 1 198.965 245.546 105.318 0 -7.06392
542466 1 195.898 245.286 108.293 0 -7.01348
542587 1 199.219 248.615 108.291 0 -7.01411
557918 1 106.48 274.239 109.682 0 -6.2557
567540 1 178.602 144.719 112.884 0 -6.25242
656081 1 116.048 202.132 133.976 0 -6.25358
697143 1 184.99 144.706 141.591 0 -6.25219
815217 1 168.924 218.297 164.099 0 -7.92263
2500257 1 172.063 221.346 164.048 0 -7.90286
829136 1 165.936 218.137 167.391 0 -7.62184
815096 1 168.93 221.44 167.209 0 -8.43805
829258 1 168.917 218.208 170.306 0 -8.30407
2571900 1 172.074 218.322 170.386 0 -8.622
829616 1 172.148 221.43 170.288 0 -8.46104
2529542 1 186.206 242.337 169.072 0 -6.26277
858298 1 172.244 218.198 173.454 0 -7.99158
815219 1 175.281 218.268 173.653 0 -7.25465
2586297 1 165.723 211.483 176.818 0 -7.07768
928742 1 181.621 178.583 194.495 0 -6.62095
943504 1 186.352 183.043 195.762 0 -6.54936
930305 1 192.601 220.016 194.576 0 -6.25806
943383 1 186.301 179.668 199.113 0 -6.6409
973146 1 195.794 208.519 204.148 0 -6.25694
975422 1 183.013 271.055 204.124 0 -6.25561
2772178 1 173.46 182.985 221.342 0 -6.25484
1147388 1 204.117 246.783 242.4 0 -6.25316
