ITEM: TIMESTEP
101000
ITEM: NUMBER OF ATOMS
82
ITEM: BOX BOUNDS pp pp pp
0 360
0 360
0 360
ITEM: ATOMS id type x y z
668816 1 165.75 159.75 138.75
697857 1 168.75 165.75 144.75
697979 1 174.75 168.75 144.75
741417 1 168.75 174.75 153.75
769972 1 153.75 168.75 159.75
812330 1 147.75 147.75 168.75
901132 1 153.75 207.75 186.75
957056 1 165.75 165.75 198.75
970977 1 168.75 153.75 201.75
971336 1 165.75 162.75 201.75
985616 1 165.75 159.75 204.75
1013814 1 159.75 144.75 210.75
1028933 1 156.75 162.75 213.75
1042979 1 174.75 153.75 216.75
1057373 1 156.75 153.75 219.75
1070348 1 201.75 117.75 222.75
1070587 1 198.75 123.75 222.75
1071773 1 156.75 153.75 222.75
1072847 1 138.75 180.75 222.75
1072966 1 135.75 183.75 222.75
1086173 1 156.75 153.75 225.75
1099266 1 195.75 120.75 228.75
1099509 1 204.75 126.75 228.75
1099627 1 198.75 129.75 228.75
1113547 1 198.75 117.75 231.75
1117475 1 102.75 216.75 231.75
1128307 1 198.75 126.75 234.75
1129852 1 153.75 165.75 234.75
1146270 1 87.75 216.75 237.75
1171627 1 198.75 129.75 243.75
1248028 1 81.75 240.75 258.75
1262309 1 84.75 237.75 261.75
1334423 1 66.75 240.75 276.75
1392737 1 48.75 258.75 288.75
1436409 1 24.75 270.75 297.75
1465448 1 21.75 276.75 303.75
1493411 1 30.75 255.75 309.75
1494009 1 24.75 270.75 309.75
1494131 1 30.75 273.75 309.75
1494251 1 30.75 276.75 309.75
2410609 1 146.25 146.25 143.25
2454776 1 167.25 170.25 152.25
2469055 1 164.25 167.25 155.25
2483696 1 167.25 173.25 158.25
2583292 1 155.25 143.25 179.25
2583776 1 167.25 155.25 179.25
2613179 1 176.25 170.25 185.25
2613180 1 179.25 170.25 185.25
2628408 1 143.25 191.25 188.25
2641860 1 179.25 167.25 191.25
2642330 1 149.25 179.25 191.25
2656620 1 179.25 176.25 194.25
2671605 1 134.25 191.25 197.25
2686018 1 173.25 191.25 200.25
2699579 1 176.25 170.25 203.25
2728257 1 170.25 167.25 209.25
2728495 1 164.25 173.25 209.25
2743377 1 170.25 185.25 212.25
2756814 1 161.25 161.25 215.25
2772165 1 134.25 185.25 218.25
2772179 1 176.25 185.25 218.25
2772182 1 185.25 185.25 218.25
2772296 1 167.25 188.25 218.25
2772418 1 173.25 191.25 218.25
2772521 1 122.25 194.25 218.25
2786800 1 119.25 191.25 221.25
2787040 1 119.25 197.25 221.25
2800012 1 155.25 161.25 224.25
2827389 1 206.25 125.25 230.25
2856666 1 197.25 137.25 236.25
2857612 1 155.25 161.25 236.25
2917951 1 92.25 230.25 248.25
2946748 1 83.25 230.25 254.25
2961629 1 86.25 242.25 257.25
2990066 1 77.25 233.25 263.25
3048261 1 62.25 248.25 275.25
3106338 1 53.25 260.25 287.25
3150246 1 17.25 278.25 296.25
3222129 1 26.25 275.25 311.25
3222610 1 29.25 287.25 311.25
3237010 1 29.25 287.25 314.25
3265568 1 23.25 281.25 320.25
