ITEM: TIMESTEP
91000
ITEM: NUMBER OF ATOMS
94
ITEM: BOX BOUNDS pp pp pp
0 360
0 360
0 360
ITEM: ATOMS id type x y z
625012 1 153.75 144.75 129.75
782080 1 117.75 111.75 162.75
825297 1 168.75 111.75 171.75
825418 1 171.75 114.75 171.75
838736 1 165.75 87.75 174.75
839581 1 180.75 108.75 174.75
839700 1 177.75 111.75 174.75
839819 1 174.75 114.75 174.75
840768 1 141.75 138.75 174.75
840887 1 138.75 141.75 174.75
854099 1 174.75 111.75 177.75
854346 1 195.75 117.75 177.75
855054 1 159.75 135.75 177.75
855171 1 150.75 138.75 177.75
869452 1 153.75 135.75 180.75
869570 1 147.75 138.75 180.75
869571 1 150.75 138.75 180.75
869688 1 141.75 141.75 180.75
869689 1 144.75 141.75 180.75
883614 1 159.75 129.75 183.75
883852 1 153.75 135.75 183.75
883853 1 156.75 135.75 183.75
883970 1 147.75 138.75 183.75
883971 1 150.75 138.75 183.75
884088 1 141.75 141.75 183.75
898252 1 153.75 135.75 186.75
898372 1 153.75 138.75 186.75
898726 1 135.75 147.75 186.75
913127 1 138.75 147.75 189.75
913245 1 132.75 150.75 189.75
955981 1 180.75 138.75 198.75
1014407 1 138.75 159.75 210.75
1058812 1 153.75 189.75 219.75
1058933 1 156.75 192.75 219.75
1072381 1 180.75 168.75 222.75
1086780 1 177.75 168.75 225.75
1086901 1 180.75 171.75 225.75
1160089 1 144.75 201.75 240.75
1160090 1 147.75 201.75 240.75
1173286 1 135.75 171.75 243.75
1174488 1 141.75 201.75 243.75
1174490 1 147.75 201.75 243.75
1174609 1 144.75 204.75 243.75
1189848 1 141.75 225.75 246.75
2337764 1 131.25 125.25 128.25
2337883 1 128.25 128.25 128.25
2366935 1 164.25 134.25 134.25
2438461 1 182.25 122.25 149.25
2524498 1 173.25 113.25 167.25
2538660 1 179.25 107.25 170.25
2538778 1 173.25 110.25 170.25
2538779 1 176.25 110.25 170.25
2538898 1 173.25 113.25 170.25
2552940 1 179.25 104.25 173.25
2553061 1 182.25 107.25 173.25
2553298 1 173.25 113.25 173.25
2553299 1 176.25 113.25 173.25
2553418 1 173.25 116.25 173.25
2554366 1 137.25 140.25 173.25
2554367 1 140.25 140.25 173.25
2567579 1 176.25 110.25 176.25
2567818 1 173.25 116.25 176.25
2568648 1 143.25 137.25 176.25
2568767 1 140.25 140.25 176.25
2568768 1 143.25 140.25 176.25
2568769 1 146.25 140.25 176.25
2568887 1 140.25 143.25 176.25
2583051 1 152.25 137.25 179.25
2583167 1 140.25 140.25 179.25
2583168 1 143.25 140.25 179.25
2583169 1 146.25 140.25 179.25
2597213 1 158.25 131.25 182.25
2597332 1 155.25 134.25 182.25
2597451 1 152.25 137.25 182.25
2597569 1 146.25 140.25 182.25
2611851 1 152.25 137.25 185.25
2612325 1 134.25 149.25 185.25
2626252 1 155.25 137.25 188.25
2626373 1 158.25 140.25 188.25
2626724 1 131.25 149.25 188.25
2626725 1 134.25 149.25 188.25
2640885 1 134.25 143.25 191.25
2641244 1 131.25 152.25 191.25
2758132 1 155.25 194.25 215.25
2758253 1 158.25 197.25 215.25
2772413 1 158.25 191.25 218.25
2772533 1 158.25 194.25 218.25
2814780 1 179.25 170.25 227.25
2841172 1 155.25 110.25 233.25
2873689 1 146.25 203.25 239.25
2887867 1 200.25 197.25 242.25
2887970 1 149.25 200.25 242.25
2902147 1 200.25 194.25 245.25
2917727 1 140.25 224.25 248.25
