ITEM: TIMESTEP
90000
ITEM: NUMBER OF ATOMS
116
ITEM: BOX BOUNDS pp pp pp
0 360
0 360
0 360
ITEM: ATOMS id type x y z
812093 1 156.75 141.75 168.75
826024 1 189.75 129.75 171.75
856248 1 141.75 165.75 177.75
868973 1 156.75 123.75 180.75
883370 1 147.75 123.75 183.75
884211 1 150.75 144.75 183.75
884693 1 156.75 156.75 183.75
884813 1 156.75 159.75 183.75
897654 1 159.75 120.75 186.75
897658 1 171.75 120.75 186.75
898491 1 150.75 141.75 186.75
898492 1 153.75 141.75 186.75
898611 1 150.75 144.75 186.75
898612 1 153.75 144.75 186.75
898852 1 153.75 150.75 186.75
898853 1 156.75 150.75 186.75
899092 1 153.75 156.75 186.75
911813 1 156.75 114.75 189.75
911938 1 171.75 117.75 189.75
912412 1 153.75 129.75 189.75
912532 1 153.75 132.75 189.75
913253 1 156.75 150.75 189.75
926091 1 150.75 111.75 192.75
926571 1 150.75 123.75 192.75
926689 1 144.75 126.75 192.75
926690 1 147.75 126.75 192.75
926691 1 150.75 126.75 192.75
926931 1 150.75 132.75 192.75
926932 1 153.75 132.75 192.75
927051 1 150.75 135.75 192.75
927173 1 156.75 138.75 192.75
927410 1 147.75 144.75 192.75
927412 1 153.75 144.75 192.75
927772 1 153.75 153.75 192.75
928612 1 153.75 174.75 192.75
940135 1 162.75 102.75 195.75
940725 1 132.75 117.75 195.75
940852 1 153.75 120.75 195.75
941213 1 156.75 129.75 195.75
941449 1 144.75 135.75 195.75
941573 1 156.75 138.75 195.75
941808 1 141.75 144.75 195.75
942410 1 147.75 159.75 195.75
955251 1 150.75 120.75 198.75
955492 1 153.75 126.75 198.75
955612 1 153.75 129.75 198.75
956212 1 153.75 144.75 198.75
956213 1 156.75 144.75 198.75
969655 1 162.75 120.75 201.75
970131 1 150.75 132.75 201.75
970132 1 153.75 132.75 201.75
970372 1 153.75 138.75 201.75
983929 1 144.75 117.75 204.75
983932 1 153.75 117.75 204.75
984166 1 135.75 123.75 204.75
984171 1 150.75 123.75 204.75
998818 1 171.75 129.75 207.75
999055 1 162.75 135.75 207.75
1012972 1 153.75 123.75 210.75
1014168 1 141.75 153.75 210.75
1041893 1 156.75 126.75 216.75
1099491 1 150.75 126.75 228.75
2540091 1 152.25 143.25 170.25
2555208 1 143.25 161.25 173.25
2567578 1 173.25 110.25 176.25
2569610 1 149.25 161.25 176.25
2582569 1 146.25 125.25 179.25
2582574 1 161.25 125.25 179.25
2583171 1 152.25 140.25 179.25
2583291 1 152.25 143.25 179.25
2584247 1 140.25 167.25 179.25
2584248 1 143.25 167.25 179.25
2597575 1 164.25 140.25 182.25
2597691 1 152.25 143.25 182.25
2597930 1 149.25 149.25 182.25
2598651 1 152.25 167.25 182.25
2611134 1 161.25 119.25 185.25
2611612 1 155.25 131.25 185.25
2612091 1 152.25 143.25 185.25
2612570 1 149.25 155.25 185.25
2626012 1 155.25 131.25 188.25
2626252 1 155.25 137.25 188.25
2626491 1 152.25 143.25 188.25
2626609 1 146.25 146.25 188.25
2626734 1 161.25 149.25 188.25
2640169 1 146.25 125.25 191.25
2640170 1 149.25 125.25 191.25
2640411 1 152.25 131.25 191.25
2640412 1 155.25 131.25 191.25
2640530 1 149.25 134.25 191.25
2640531 1 152.25 134.25 191.25
2641368 1 143.25 155.25 191.25
2641490 1 149.25 158.25 191.25
2654212 1 155.25 116.25 194.25
2654326 1 137.25 119.25 194.25
2654566 1 137.25 125.25 194.25
2654928 1 143.25 134.25 194.25
2655292 1 155.25 143.25 194.25
2655293 1 158.25 143.25 194.25
2655296 1 167.25 143.25 194.25
2655526 1 137.25 149.25 194.25
2655770 1 149.25 155.25 194.25
2668731 1 152.25 119.25 197.25
2668851 1 152.25 122.25 197.25
2669331 1 152.25 134.25 197.25
2669575 1 164.25 140.25 197.25
2669692 1 155.25 143.25 197.25
2669693 1 158.25 143.25 197.25
2670052 1 155.25 152.25 197.25
2683251 1 152.25 122.25 200.25
2683374 1 161.25 125.25 200.25
2683610 1 149.25 131.25 200.25
2683977 1 170.25 140.25 200.25
2698010 1 149.25 131.25 203.25
2712650 1 149.25 137.25 206.25
2755850 1 149.25 137.25 215.25
