ITEM: TIMESTEP
95000
ITEM: NUMBER OF ATOMS
84
ITEM: BOX BOUNDS pp pp pp
0 360
0 360
0 360
ITEM: ATOMS id type x y z
486825 1 312.75 288.75 99.75
515745 1 312.75 291.75 105.75
543581 1 300.75 267.75 111.75
615821 1 300.75 273.75 126.75
684791 1 210.75 198.75 141.75
697009 1 144.75 144.75 144.75
701380 1 297.75 252.75 144.75
711669 1 204.75 150.75 147.75
715180 1 297.75 237.75 147.75
716375 1 282.75 267.75 147.75
725946 1 195.75 147.75 150.75
726308 1 201.75 156.75 150.75
740225 1 192.75 144.75 153.75
742632 1 213.75 204.75 153.75
744808 1 261.75 258.75 153.75
755345 1 192.75 162.75 156.75
757159 1 234.75 207.75 156.75
757276 1 225.75 210.75 156.75
768904 1 189.75 141.75 159.75
769868 1 201.75 165.75 159.75
770591 1 210.75 183.75 159.75
773123 1 246.75 246.75 159.75
783426 1 195.75 144.75 162.75
783431 1 210.75 144.75 162.75
783664 1 189.75 150.75 162.75
783666 1 195.75 150.75 162.75
783785 1 192.75 153.75 162.75
783791 1 210.75 153.75 162.75
784641 1 240.75 174.75 162.75
797706 1 195.75 141.75 165.75
797710 1 207.75 141.75 165.75
797828 1 201.75 144.75 165.75
798065 1 192.75 150.75 165.75
798185 1 192.75 153.75 165.75
811864 1 189.75 135.75 168.75
811979 1 174.75 138.75 168.75
812474 1 219.75 150.75 168.75
816691 1 270.75 255.75 168.75
2229103 1 308.25 287.25 104.25
2414971 1 272.25 254.25 143.25
2414973 1 278.25 254.25 143.25
2415222 1 305.25 260.25 143.25
2424783 1 188.25 140.25 146.25
2425010 1 149.25 146.25 146.25
2425386 1 197.25 155.25 146.25
2439423 1 188.25 146.25 149.25
2453943 1 188.25 149.25 152.25
2454425 1 194.25 161.25 152.25
2457462 1 305.25 236.25 152.25
2458062 1 305.25 251.25 152.25
2458294 1 281.25 257.25 152.25
2468106 1 197.25 143.25 155.25
2472563 1 248.25 254.25 155.25
2472576 1 287.25 254.25 155.25
2472685 1 254.25 257.25 155.25
2482382 1 185.25 140.25 158.25
2482502 1 185.25 143.25 158.25
2482507 1 200.25 143.25 158.25
2482625 1 194.25 146.25 158.25
2482742 1 185.25 149.25 158.25
2482867 1 200.25 152.25 158.25
2482987 1 200.25 155.25 158.25
2483107 1 200.25 158.25 158.25
2483109 1 206.25 158.25 158.25
2486603 1 248.25 245.25 158.25
2496905 1 194.25 143.25 161.25
2497264 1 191.25 152.25 161.25
2497265 1 194.25 152.25 161.25
2497382 1 185.25 155.25 161.25
2497391 1 212.25 155.25 161.25
2500524 1 251.25 233.25 161.25
2511665 1 194.25 152.25 164.25
2525703 1 188.25 143.25 167.25
2525704 1 191.25 143.25 167.25
2525944 1 191.25 149.25 167.25
2529334 1 281.25 233.25 167.25
2529562 1 245.25 239.25 167.25
2540594 1 221.25 155.25 170.25
2544811 1 272.25 260.25 170.25
2554385 1 194.25 140.25 173.25
2554999 1 236.25 155.25 173.25
2555594 1 221.25 170.25 173.25
2568558 1 233.25 134.25 176.25
2568679 1 236.25 137.25 176.25
