ITEM: TIMESTEP
87000
ITEM: NUMBER OF ATOMS
63
ITEM: BOX BOUNDS pp pp pp
0 360
0 360
0 360
ITEM: ATOMS id type x y z c_myKE c_myPE
2311371 1 149.558 184.635 119.642 0.0762058 -6.80452
768888 1 136.847 139.921 158.78 0.0630435 -6.69048
2511899 1 177.027 157.934 163.89 0.0485462 -7.21626
2524732 1 155.015 114.185 167.375 0.189238 -7.15166
2627943 1 187.856 176.921 187.602 0.204306 -7.38725
2625415 1 164.503 111.618 189.348 0.0523153 -6.55679
985129 1 140.131 144.829 210.094 0.363469 -8.44228
2727769 1 140.041 147.957 210.123 0.0416517 -8.67386
2727530 1 143.217 148.004 210.197 0.0881285 -8.56601
2727528 1 146.344 148.139 210.173 0.272282 -7.92279
999892 1 149.479 154.716 210.196 0.155136 -7.76817
2755967 1 140.224 138.763 212.992 0.139283 -7.93787
1028087 1 136.858 141.709 213.503 0.00825856 -7.93655
2741687 1 140.169 145.037 213.359 0.170537 -8.46705
985247 1 137.244 148.108 213.175 0.169214 -8.13148
1028450 1 143.31 148.047 213.247 0.0703612 -8.44968
2741930 1 146.338 148.206 213.532 0.178624 -8.71934
1042607 1 136.86 141.784 216.213 0.0472486 -7.96882
2785005 1 136.944 144.863 216.432 0.266053 -8.21374
1042727 1 139.949 148.187 216.517 0.442185 -7.83272
1014049 1 143.21 151.176 216.636 0.0177798 -8.15867
2798441 1 117.521 117.689 225.83 0.146999 -6.73355
1158515 1 97.4486 159.076 243.692 0.0519392 -7.57299
1144115 1 98.5979 161.145 245.252 0.0542501 -7.08063
2885189 1 79.3697 129.41 247.059 0.00728171 -6.6839
2899848 1 142.128 130.605 248.302 0.59973 -6.77614
2930459 1 178.513 183.304 256.682 0.101819 -6.28423
3087178 1 173.727 137.012 291.766 0.178665 -6.56631
783778 1 172.271 153.325 162.667 0.069146 -6.38838
811252 1 152.949 115.504 168.531 0.482215 -5.49051
811740 1 176.735 131.317 168.828 0.134413 -6.85488
826139 1 173.422 131.092 172.097 0.0947325 -7.49553
897654 1 159.399 115.748 188.295 0.24671 -7.05695
2670514 1 96.7376 162.969 194.343 0.331613 -6.46514
941448 1 140.26 143.375 198.64 0.11274 -6.90432
2684088 1 143.419 146.85 198.786 0.0315053 -7.19202
2726316 1 105.148 119.554 208.469 0.222065 -6.74437
2741808 1 144.708 146.457 208.729 0.130638 -8.01012
999652 1 150.891 149.967 208.23 0.0749208 -7.24444
986801 1 117.977 189.669 207.182 0.0789141 -6.63651
2726676 1 105.132 122.731 211.731 0.0997642 -6.81549
2713129 1 144.851 143.582 211.868 0.286995 -7.99897
999772 1 147.954 149.664 211.851 0.264682 -7.92212
999771 1 147.873 152.911 211.985 0.0627176 -7.50915
1028208 1 141.615 140.432 215.062 0.0247134 -8.23408
2727285 1 138.73 143.28 214.811 0.0673291 -8.47081
2770729 1 141.575 146.635 215.038 0.384653 -8.68738
2756207 1 141.696 149.639 215.026 0.144672 -8.42653
1014051 1 144.849 149.731 215.075 0.0778318 -8.33116
1028451 1 148.121 149.701 214.948 0.184502 -8.1468
2742049 1 144.681 152.793 214.989 0.211264 -8.22143
1057245 1 135.308 143.401 218.094 0.0694522 -7.21183
1057725 1 130.662 162.622 223.447 0.211093 -5.82336
2812825 1 66.8328 114.896 229.444 0.0826508 -6.37704
1088443 1 122.867 213.8 230.06 0.044285 -6.04386
1128550 1 210.662 128.92 237.332 0.0316645 -7.02472
1142949 1 207.518 129.08 240.655 0.631596 -6.35288
2857595 1 98.7881 160.808 242.18 0.00667444 -7.01463
1170991 1 84.3279 109.426 246.763 0.0727866 -6.73471
2899730 1 146.42 132.01 246.691 0.246316 -6.13582
1244687 1 137.307 154.517 264.739 0.137001 -6.67522
1273862 1 181.725 162.805 272.538 0.115038 -6.49231
1403706 1 195.598 170.301 297.795 0.294421 -7.15085
