ITEM: TIMESTEP
95575
ITEM: NUMBER OF ATOMS
68
ITEM: BOX BOUNDS pp pp pp
0 360
0 360
0 360
ITEM: ATOMS id type x y z
668820 1 177.75 159.75 138.75
698340 1 177.75 177.75 144.75
703055 1 282.75 294.75 144.75
712128 1 141.75 162.75 147.75
727507 1 198.75 186.75 150.75
727980 1 177.75 198.75 150.75
745898 1 291.75 285.75 153.75
745899 1 294.75 285.75 153.75
756179 1 174.75 183.75 156.75
774575 1 282.75 282.75 159.75
775539 1 294.75 306.75 159.75
788367 1 258.75 267.75 162.75
789216 1 285.75 288.75 162.75
798655 1 162.75 165.75 165.75
799862 1 183.75 195.75 165.75
799978 1 171.75 198.75 165.75
802166 1 255.75 252.75 165.75
802533 1 276.75 261.75 165.75
812337 1 168.75 147.75 168.75
813295 1 162.75 171.75 168.75
816201 1 240.75 243.75 168.75
816202 1 243.75 243.75 168.75
817657 1 288.75 279.75 168.75
827572 1 153.75 168.75 171.75
842344 1 189.75 177.75 174.75
873560 1 237.75 237.75 180.75
904765 1 252.75 297.75 186.75
933946 1 315.75 306.75 192.75
986580 1 177.75 183.75 204.75
1044420 1 177.75 189.75 216.75
2339338 1 173.25 164.25 128.25
2372977 1 290.25 284.25 134.25
2416174 1 281.25 284.25 143.25
2455142 1 185.25 179.25 152.25
2455262 1 185.25 182.25 152.25
2456227 1 200.25 206.25 152.25
2460088 1 263.25 302.25 152.25
2460094 1 281.25 302.25 152.25
2485151 1 212.25 209.25 158.25
2488055 1 284.25 281.25 158.25
2488176 1 287.25 284.25 158.25
2488296 1 287.25 287.25 158.25
2489014 1 281.25 305.25 158.25
2498341 1 182.25 179.25 161.25
2501727 1 260.25 263.25 161.25
2502816 1 287.25 290.25 161.25
2503055 1 284.25 296.25 161.25
2503415 1 284.25 305.25 161.25
2514434 1 221.25 221.25 164.25
2514801 1 242.25 230.25 164.25
2517337 1 290.25 293.25 164.25
2517338 1 293.25 293.25 164.25
2526551 1 212.25 164.25 167.25
2530404 1 251.25 260.25 167.25
2541776 1 167.25 185.25 170.25
2541890 1 149.25 188.25 170.25
2544325 1 254.25 248.25 170.25
2546375 1 284.25 299.25 170.25
2556895 1 164.25 203.25 173.25
2557874 1 221.25 227.25 173.25
2561137 1 290.25 308.25 173.25
2561148 1 323.25 308.25 173.25
2573000 1 239.25 245.25 176.25
2575536 1 287.25 308.25 176.25
2603966 1 257.25 299.25 182.25
2616798 1 233.25 260.25 185.25
2619108 1 323.25 317.25 185.25
2647544 1 311.25 308.25 191.25
