ITEM: TIMESTEP
88190
ITEM: NUMBER OF ATOMS
75
ITEM: BOX BOUNDS pp pp pp
0 360
0 360
0 360
ITEM: ATOMS id type x y z c_myKE c_myPE
2453943 1 187.843 146.32 149.461 0 -7.52949
2454064 1 191.15 149.652 149.421 0 -6.57558
2468344 1 191.153 146.282 152.79 0 -6.57408
2497008 1 135.385 142.09 162.442 0 -7.25654
2540336 1 167.484 146.384 170.582 0 -6.2621
2552810 1 148.429 95.4742 173.615 0 -6.54154
2553414 1 161.087 113.222 173.769 0 -6.25672
2569838 1 109.971 167.363 173.889 0 -6.55001
827679 1 113.223 170.622 173.762 0 -6.82396
870539 1 178.44 163.987 178.159 0 -6.85462
2584260 1 177 165.334 180.008 0 -7.59645
913861 1 181.65 167.429 181.606 0 -8.20081
870783 1 184.877 170.57 181.55 0 -8.38398
870902 1 187.917 173.636 181.555 0 -8.28337
885303 1 190.881 173.708 181.364 0 -7.51617
2613180 1 181.717 170.582 184.771 0 -8.47549
885300 1 181.647 173.693 184.709 0 -8.55354
2613302 1 183.311 175.163 183.169 0 -8.78924
885544 1 187.89 176.926 184.69 0 -8.51237
2627703 1 184.809 176.865 187.983 0 -7.96207
2627949 1 207.149 180.154 187.648 0 -6.8917
2628068 1 203.812 183.316 187.906 0 -6.80142
2886895 1 164.284 173.841 247.106 0 -6.25342
2928649 1 143.114 135.497 254.806 0 -6.28412
2915449 1 143.195 167.435 253.499 0 -6.25426
2971619 1 175.102 127.232 264.318 0 -6.25548
3058978 1 173.72 152.729 282.129 0 -7.12414
1345618 1 171.904 154.566 286.75 0 -7.13189
3102539 1 175.095 164.108 293.158 0 -7.33893
3116820 1 177.138 158.64 296.441 0 -7.9139
3116942 1 180.601 162.51 296.565 0 -8.03079
3131098 1 173.796 157.915 299.397 0 -6.41882
3131219 1 177.128 160.85 298.637 0 -7.91134
3375155 1 100.449 136.777 355.594 0 -6.25606
740571 1 151.192 153.133 156.206 0 -6.25823
2468206 1 135.078 141.57 159.604 0 -7.35374
2511637 1 103.308 149.883 160.667 0 -6.25337
783287 1 135.423 138.243 162.407 0 -7.23147
797807 1 138.221 141.567 162.749 0 -7.36598
839210 1 146.85 93.7041 175.386 0 -6.82842
2612817 1 176.847 162.451 179.948 0 -7.23743
856381 1 183.237 168.956 179.907 0 -8.01847
871861 1 179.813 195.951 179.702 0 -6.82643
871982 1 183.121 199.159 179.652 0 -6.50895
2612940 1 179.968 166.095 183.32 0 -7.71854
2613061 1 180.098 169.029 183.221 0 -8.27405
856503 1 183.249 169.048 183.131 0 -8.71658
2613181 1 183.272 172.099 183.172 0 -8.77944
871023 1 186.385 172.135 183.226 0 -8.50649
2599021 1 186.402 175.236 183.176 0 -8.7837
2613304 1 189.49 175.303 183.059 0 -8.17931
2627460 1 179.936 172.1 186.225 0 -7.66886
914222 1 183.208 175.331 186.356 0 -8.3377
885543 1 186.347 175.351 186.293 0 -8.74241
2613428 1 208.758 175.585 186.309 0 -6.4787
2613424 1 186.316 178.456 186.356 0 -8.25249
899943 1 189.331 178.646 186.258 0 -7.5886
2642558 1 106.508 186.233 191.315 0 -6.25444
986688 1 140.368 188.192 205.308 0 -6.254
1058201 1 116.088 175.417 223.202 0 -6.25282
1114259 1 173.504 135.192 235.958 0 -6.25262
1187920 1 112.889 178.613 249.971 0 -6.25406
1214940 1 178.634 128.817 258.301 0 -6.26078
1231248 1 138.408 181.796 258.304 0 -6.25396
1243487 1 137.122 124.409 262.713 0 -6.83538
1243607 1 135.214 125.643 264.642 0 -6.83759
3000169 1 146.402 119.05 269.425 0 -7.06277
1257770 1 144.577 120.877 269.426 0 -7.08838
2987194 1 95.6928 157.522 269.106 0 -6.25568
1286570 1 146.397 120.873 271.246 0 -7.05538
1345379 1 173.612 153.001 284.857 0 -7.45383
3073379 1 176.725 153.063 285.044 0 -7.34442
3073378 1 173.67 156.304 285.219 0 -7.39184
1403574 1 159.445 167.108 297.752 0 -6.28997
1404037 1 103.301 181.78 299.775 0 -6.25564
