ITEM: TIMESTEP
98704
ITEM: NUMBER OF ATOMS
79
ITEM: BOX BOUNDS pp pp pp
0 360
0 360
0 360
ITEM: ATOMS id type x y z
711522 1 123.75 147.75 147.75
754487 1 138.75 141.75 156.75
754716 1 105.75 147.75 156.75
754723 1 126.75 147.75 156.75
755215 1 162.75 159.75 156.75
783885 1 132.75 156.75 162.75
797930 1 147.75 147.75 165.75
798534 1 159.75 162.75 165.75
798655 1 162.75 165.75 165.75
812205 1 132.75 144.75 168.75
813175 1 162.75 168.75 168.75
814013 1 156.75 189.75 168.75
826603 1 126.75 144.75 171.75
826608 1 141.75 144.75 171.75
826723 1 126.75 147.75 171.75
826728 1 141.75 147.75 171.75
826857 1 168.75 150.75 171.75
827335 1 162.75 162.75 171.75
841003 1 126.75 144.75 174.75
841123 1 126.75 147.75 174.75
841126 1 135.75 147.75 174.75
855403 1 126.75 144.75 177.75
855770 1 147.75 153.75 177.75
855886 1 135.75 156.75 177.75
868979 1 174.75 123.75 180.75
884569 1 144.75 153.75 183.75
884571 1 150.75 153.75 183.75
911828 1 201.75 114.75 189.75
926107 1 198.75 111.75 192.75
943842 1 123.75 195.75 195.75
953829 1 204.75 84.75 198.75
955120 1 117.75 117.75 198.75
957880 1 117.75 186.75 198.75
982749 1 204.75 87.75 204.75
997150 1 207.75 87.75 207.75
1000724 1 129.75 177.75 207.75
1029761 1 120.75 183.75 213.75
1043933 1 156.75 177.75 216.75
1044163 1 126.75 183.75 216.75
1054032 1 213.75 69.75 219.75
1111396 1 225.75 63.75 231.75
1181846 1 255.75 24.75 246.75
1196844 1 249.75 39.75 249.75
1268250 1 267.75 24.75 264.75
1311327 1 258.75 21.75 273.75
1426409 1 264.75 18.75 297.75
2453812 1 155.25 146.25 152.25
2453913 1 98.25 149.25 152.25
2482857 1 170.25 152.25 158.25
2496996 1 107.25 146.25 161.25
2497493 1 158.25 158.25 161.25
2511401 1 122.25 146.25 164.25
2525808 1 143.25 146.25 167.25
2526291 1 152.25 158.25 167.25
2542257 1 170.25 197.25 170.25
2554484 1 131.25 143.25 173.25
2554604 1 131.25 146.25 173.25
2554847 1 140.25 152.25 173.25
2554850 1 149.25 152.25 173.25
2568524 1 131.25 134.25 176.25
2569245 1 134.25 152.25 176.25
2582692 1 155.25 128.25 179.25
2583649 1 146.25 152.25 179.25
2610782 1 185.25 110.25 185.25
2611962 1 125.25 140.25 185.25
2614242 1 125.25 197.25 185.25
2625428 1 203.25 116.25 188.25
2639344 1 191.25 104.25 191.25
2639467 1 200.25 107.25 191.25
2642919 1 116.25 194.25 191.25
2643172 1 155.25 200.25 191.25
2724669 1 206.25 77.25 209.25
2753231 1 212.25 71.25 215.25
2768953 1 218.25 104.25 218.25
2896400 1 239.25 50.25 245.25
2924604 1 251.25 35.25 251.25
2939242 1 245.25 41.25 254.25
2982563 1 248.25 44.25 263.25
3010409 1 266.25 20.25 269.25
