ITEM: TIMESTEP
89000
ITEM: NUMBER OF ATOMS
69
ITEM: BOX BOUNDS pp pp pp
0 360
0 360
0 360
ITEM: ATOMS id type x y z
755212 1 153.75 159.75 156.75
769735 1 162.75 162.75 159.75
812450 1 147.75 150.75 168.75
827206 1 135.75 159.75 171.75
840778 1 171.75 138.75 174.75
871248 1 141.75 180.75 180.75
884571 1 150.75 153.75 183.75
884692 1 153.75 156.75 183.75
884810 1 147.75 159.75 183.75
886136 1 165.75 192.75 183.75
898854 1 159.75 150.75 186.75
899094 1 159.75 156.75 186.75
899690 1 147.75 171.75 186.75
927665 1 192.75 150.75 192.75
970018 1 171.75 129.75 201.75
1028469 1 204.75 150.75 213.75
1030483 1 126.75 201.75 213.75
1042879 1 234.75 150.75 216.75
1057272 1 213.75 150.75 219.75
1114759 1 234.75 147.75 231.75
1127962 1 243.75 117.75 234.75
1128917 1 228.75 141.75 234.75
1129154 1 219.75 147.75 234.75
1142477 1 228.75 120.75 237.75
1157119 1 234.75 126.75 240.75
1171160 1 237.75 117.75 243.75
1171881 1 240.75 135.75 243.75
1185553 1 216.75 117.75 246.75
1185558 1 231.75 117.75 246.75
1213879 1 234.75 105.75 252.75
1214719 1 234.75 126.75 252.75
1217476 1 225.75 195.75 252.75
1229120 1 237.75 126.75 255.75
1257688 1 261.75 120.75 261.75
1259955 1 222.75 177.75 261.75
2396330 1 149.25 149.25 140.25
2440013 1 158.25 161.25 149.25
2483212 1 155.25 161.25 158.25
2554604 1 131.25 146.25 173.25
2554854 1 161.25 152.25 173.25
2569731 1 152.25 164.25 176.25
2569732 1 155.25 164.25 176.25
2584133 1 158.25 164.25 179.25
2584488 1 143.25 173.25 179.25
2612928 1 143.25 164.25 185.25
2613768 1 143.25 185.25 185.25
2657332 1 155.25 194.25 194.25
2683618 1 173.25 131.25 200.25
2685883 1 128.25 188.25 200.25
2729082 1 125.25 188.25 209.25
2756358 1 233.25 149.25 215.25
2797291 1 272.25 92.25 224.25
2813357 1 230.25 134.25 227.25
2814670 1 209.25 167.25 227.25
2826685 1 254.25 107.25 230.25
2841796 1 227.25 125.25 233.25
2856078 1 233.25 122.25 236.25
2856679 1 236.25 137.25 236.25
2856915 1 224.25 143.25 236.25
2857272 1 215.25 152.25 236.25
2870604 1 251.25 125.25 239.25
2899168 1 263.25 119.25 245.25
2913799 1 236.25 125.25 248.25
2914280 1 239.25 137.25 248.25
2942717 1 230.25 128.25 254.25
2957117 1 230.25 128.25 257.25
2957118 1 233.25 128.25 257.25
2973192 1 215.25 170.25 260.25
3000205 1 254.25 125.25 266.25
