ITEM: TIMESTEP
89000
ITEM: NUMBER OF ATOMS
69
ITEM: BOX BOUNDS pp pp pp
0 360
0 360
0 360
ITEM: ATOMS id type x y z c_myKE c_myPE
2339695 1 164.286 173.886 125.632 0.0928351 -7.00639
2541536 1 167.425 178.139 170.476 0.375677 -6.49385
2598426 1 199.135 160.864 181.289 0.202345 -6.30339
2596725 1 130.012 114.292 183.134 0.239791 -6.26082
2598060 1 178.091 149.704 183.377 0.194902 -7.44931
2625059 1 176.891 101.607 187.845 0.178756 -6.20224
884581 1 178.375 149.783 186.474 0.0393681 -7.18505
900527 1 132.162 193.002 187.423 0.0396976 -6.54787
2654816 1 168.358 129.23 193.076 0.234352 -7.34093
2669337 1 168.797 129.113 196.083 0.281739 -7.46274
2657699 1 176.969 205.888 196.023 0.144042 -5.49956
2729210 1 148.282 190.931 212.118 0.450679 -7.25096
2744325 1 133.743 210.253 213.105 0.168921 -7.52076
2743370 1 148.184 184.788 215.052 0.022877 -6.9562
2800151 1 213.298 164.49 228.45 0.222668 -6.92386
2828949 1 209.503 164.453 232.606 0.163442 -7.06319
2814670 1 211.75 167.586 230.898 0.104803 -7.02549
1173196 1 231.137 167.555 248.471 0.0816695 -7.62493
2929757 1 234.333 167.514 248.783 0.0480102 -8.27596
1187598 1 237.49 167.527 248.769 0.310861 -8.20532
1187838 1 237.273 170.628 248.512 0.0619598 -8.73031
2902755 1 228.045 212.252 248.343 0.136259 -6.76851
2901078 1 240.488 167.34 251.546 0.273175 -7.97052
2915599 1 240.547 170.539 251.738 0.0754215 -7.89065
1187839 1 237.681 176.68 251.703 0.275888 -7.75362
1172960 1 240.765 164.65 254.887 0.190221 -7.42151
2930000 1 240.693 167.509 255.007 0.550652 -6.88549
2944398 1 237.365 173.853 254.963 0.394347 -7.00051
2970563 1 251.695 100.601 266.265 0.0242448 -6.76677
2970682 1 248.028 103.336 266.229 0.0980644 -6.69834
3058282 1 248.394 135.61 285.331 0.0577645 -5.92052
611696 1 165.728 172.185 124.228 0.228465 -6.52626
626096 1 165.766 172.063 127.294 0.0918861 -7.55193
696540 1 178.636 128.892 143.317 0.0498724 -6.36911
710941 1 181.749 128.727 146.422 0.0997297 -7.07039
812346 1 198.827 146.788 165.594 0.0280428 -6.72992
857335 1 162.88 194.36 176.864 0.384515 -6.16851
869321 1 117.775 130.397 179.812 0.0526343 -6.65318
2626146 1 197.712 128.904 189.588 0.331975 -6.16435
926937 1 170.348 130.863 194.319 0.425281 -7.57566
955736 1 165.603 128.763 198.742 0.0516712 -7.1681
956121 1 243.33 138.476 198.471 0.0284681 -6.34428
971097 1 167.025 154.323 204.085 0.0681851 -5.89784
998597 1 230.92 121.006 208.329 0.218347 -6.25242
2729209 1 146.655 189.46 210.529 0.1389 -7.64959
1001212 1 149.843 189.624 210.433 0.0547896 -6.55321
2729806 1 135.453 205.47 211.663 0.178498 -7.12
2729684 1 131.979 209.141 214.676 0.193433 -6.18211
1001927 1 135.04 208.715 215.141 0.0213546 -7.71319
1100369 1 272.306 144.945 233.928 0.118901 -6.24982
1158796 1 232.841 165.729 243.741 0.168345 -7.13716
1173199 1 235.963 165.564 243.823 0.6295 -7.1426
1158799 1 235.762 169.005 243.864 0.0232045 -7.70318
1158677 1 236.128 165.977 246.893 0.0893774 -7.91624
2886797 1 235.682 172.236 246.959 0.0945443 -8.20151
1185428 1 202.209 109.759 250.068 0.401097 -7.01648
2886439 1 235.875 162.819 250.034 0.00950227 -6.98395
2901077 1 238.922 169.316 250.101 0.156649 -8.0487
2915598 1 235.849 172.367 250.127 0.181689 -8.40416
2901198 1 239.012 171.935 249.983 0.362402 -8.48582
2930117 1 235.861 175.241 250.161 0.0845495 -7.24946
2886918 1 239.107 175.073 250.039 0.156507 -7.96029
1174754 1 221.328 210.63 248.504 0.269162 -5.81173
1199948 1 202.217 112.911 253.14 0.0827274 -6.4068
1202119 1 239.182 172.197 253.299 0.0842077 -7.92953
1198998 1 234.166 87.4096 254.93 0.449338 -6.3011
2931794 1 224.607 220.006 256.493 0.220327 -6.68571
1242802 1 246.492 105.311 264.588 0.409747 -7.07144
1472833 1 218.162 93.9279 315.508 0.0651967 -6.19075
