ITEM: TIMESTEP
95626
ITEM: NUMBER OF ATOMS
63
ITEM: BOX BOUNDS pp pp pp
0 360
0 360
0 360
ITEM: ATOMS id type x y z
711290 1 147.75 141.75 147.75
811502 1 183.75 126.75 168.75
883735 1 162.75 132.75 183.75
898847 1 138.75 150.75 186.75
912531 1 150.75 132.75 189.75
955847 1 138.75 135.75 198.75
970006 1 135.75 129.75 201.75
1202210 1 147.75 174.75 249.75
1202444 1 129.75 180.75 249.75
1216014 1 159.75 159.75 252.75
1259454 1 159.75 165.75 261.75
1259687 1 138.75 171.75 261.75
1259696 1 165.75 171.75 261.75
1259811 1 150.75 174.75 261.75
1274444 1 129.75 180.75 264.75
1274452 1 153.75 180.75 264.75
1288729 1 144.75 177.75 267.75
1288731 1 150.75 177.75 267.75
1289442 1 123.75 195.75 267.75
1305043 1 126.75 225.75 270.75
1318966 1 135.75 213.75 273.75
1319326 1 135.75 222.75 273.75
1319563 1 126.75 228.75 273.75
1360121 1 120.75 162.75 282.75
1375722 1 123.75 192.75 285.75
1390360 1 117.75 198.75 288.75
1420008 1 141.75 219.75 294.75
1432477 1 108.75 171.75 297.75
1449169 1 144.75 228.75 300.75
1475196 1 105.75 159.75 306.75
1478443 1 126.75 240.75 306.75
1493797 1 108.75 264.75 309.75
1522356 1 105.75 258.75 315.75
1522596 1 105.75 264.75 315.75
1566271 1 90.75 276.75 324.75
1594713 1 96.75 267.75 330.75
2439409 1 146.25 146.25 149.25
2468209 1 146.25 146.25 155.25
2626849 1 146.25 152.25 188.25
2654919 1 116.25 134.25 194.25
2655649 1 146.25 152.25 194.25
2655650 1 149.25 152.25 194.25
2683966 1 137.25 140.25 200.25
2915333 1 158.25 164.25 248.25
2929609 1 146.25 161.25 251.25
2944009 1 146.25 161.25 254.25
2944014 1 161.25 161.25 254.25
2946526 1 137.25 224.25 254.25
2989005 1 134.25 206.25 263.25
3002211 1 152.25 176.25 266.25
3002329 1 146.25 179.25 266.25
3031371 1 152.25 185.25 272.25
3047080 1 119.25 218.25 275.25
3047563 1 128.25 230.25 275.25
3059933 1 158.25 179.25 278.25
3146798 1 113.25 191.25 296.25
3174636 1 107.25 167.25 302.25
3207275 1 104.25 263.25 308.25
3221317 1 110.25 254.25 311.25
3233442 1 125.25 197.25 314.25
3236076 1 107.25 263.25 314.25
3265353 1 98.25 275.25 320.25
3279750 1 89.25 275.25 323.25
