ITEM: TIMESTEP
90604
ITEM: NUMBER OF ATOMS
99
ITEM: BOX BOUNDS pp pp pp
0 360
0 360
0 360
ITEM: ATOMS id type x y z
322749 1 204.75 147.75 66.75
352385 1 192.75 168.75 72.75
366544 1 189.75 162.75 75.75
539701 1 180.75 171.75 111.75
681663 1 186.75 120.75 141.75
696666 1 195.75 135.75 144.75
697141 1 180.75 147.75 144.75
697498 1 171.75 156.75 144.75
697744 1 189.75 162.75 144.75
710585 1 192.75 123.75 147.75
711661 1 180.75 150.75 147.75
724979 1 174.75 123.75 150.75
725213 1 156.75 129.75 150.75
725822 1 183.75 144.75 150.75
725936 1 165.75 147.75 150.75
725937 1 168.75 147.75 150.75
726063 1 186.75 150.75 150.75
739742 1 183.75 132.75 153.75
739862 1 183.75 135.75 153.75
740226 1 195.75 144.75 153.75
740459 1 174.75 150.75 153.75
740572 1 153.75 153.75 153.75
740585 1 192.75 153.75 153.75
754615 1 162.75 144.75 156.75
754743 1 186.75 147.75 156.75
755106 1 195.75 156.75 156.75
768178 1 171.75 123.75 159.75
769018 1 171.75 144.75 159.75
769020 1 177.75 144.75 159.75
769142 1 183.75 147.75 159.75
769143 1 186.75 147.75 159.75
769262 1 183.75 150.75 159.75
783062 1 183.75 135.75 162.75
783172 1 153.75 138.75 162.75
783665 1 192.75 150.75 162.75
783783 1 186.75 153.75 162.75
797343 1 186.75 132.75 165.75
797941 1 180.75 147.75 165.75
798181 1 180.75 153.75 165.75
798305 1 192.75 156.75 165.75
826378 1 171.75 138.75 171.75
841014 1 159.75 144.75 174.75
855895 1 162.75 156.75 177.75
897793 1 216.75 123.75 186.75
2051582 1 185.25 170.25 68.25
2280433 1 218.25 131.25 116.25
2381583 1 188.25 140.25 137.25
2395981 1 182.25 140.25 140.25
2410503 1 188.25 143.25 143.25
2424903 1 188.25 143.25 146.25
2425261 1 182.25 152.25 146.25
2439303 1 188.25 143.25 149.25
2439540 1 179.25 149.25 149.25
2439541 1 182.25 149.25 149.25
2439660 1 179.25 152.25 149.25
2439661 1 182.25 152.25 149.25
2453573 1 158.25 140.25 152.25
2453579 1 176.25 140.25 152.25
2453582 1 185.25 140.25 152.25
2453938 1 173.25 149.25 152.25
2453948 1 203.25 149.25 152.25
2454070 1 209.25 152.25 152.25
2467730 1 149.25 134.25 155.25
2467978 1 173.25 140.25 155.25
2468219 1 176.25 146.25 155.25
2468222 1 185.25 146.25 155.25
2468344 1 191.25 149.25 155.25
2481903 1 188.25 128.25 158.25
2482378 1 173.25 140.25 158.25
2482381 1 182.25 140.25 158.25
2482506 1 197.25 143.25 158.25
2482617 1 170.25 146.25 158.25
2482619 1 176.25 146.25 158.25
2482737 1 170.25 149.25 158.25
2482740 1 179.25 149.25 158.25
2482749 1 206.25 149.25 158.25
2482865 1 194.25 152.25 158.25
2496538 1 173.25 134.25 161.25
2496781 1 182.25 140.25 161.25
2497017 1 170.25 146.25 161.25
2497024 1 191.25 146.25 161.25
2497381 1 182.25 155.25 161.25
2511306 1 197.25 143.25 164.25
2511419 1 176.25 146.25 164.25
2511422 1 185.25 146.25 164.25
2511542 1 185.25 149.25 164.25
2511782 1 185.25 155.25 164.25
2524859 1 176.25 122.25 167.25
2525575 1 164.25 140.25 167.25
2525820 1 179.25 146.25 167.25
2526301 1 182.25 158.25 167.25
2539975 1 164.25 140.25 170.25
2540102 1 185.25 143.25 170.25
2553900 1 179.25 128.25 173.25
2554370 1 149.25 140.25 173.25
2568778 1 173.25 140.25 176.25
2597815 1 164.25 146.25 182.25
2612452 1 155.25 152.25 185.25
2612469 1 206.25 152.25 185.25
