ITEM: TIMESTEP
91000
ITEM: NUMBER OF ATOMS
65
ITEM: BOX BOUNDS pp pp pp
0 360
0 360
0 360
ITEM: ATOMS id type x y z c_myKE c_myPE
2497008 1 139.756 143.231 160.861 0.14176 -6.03111
2526288 1 141.77 157.684 165.552 0.220356 -6.49881
2700668 1 203.898 197.098 205.492 0.311249 -6.1134
2715657 1 170.663 213.615 206.849 0.421838 -6.97604
1043820 1 171.863 174.403 216.216 0.0370775 -6.24542
1071909 1 212.154 157.743 223.002 0.347363 -7.70054
2787317 1 232.621 203.891 222.978 0.10201 -6.69001
2771347 1 208.982 157.78 225.719 0.0629501 -6.85978
1057630 1 215.076 157.598 225.88 0.0919556 -7.38931
1057629 1 211.688 160.893 225.98 0.156505 -7.93381
2785391 1 220.351 162.454 225.404 0.105872 -7.83653
1057992 1 216.667 166.204 225.44 0.0567755 -7.52294
1072271 1 215.296 161.347 229.382 0.0706677 -7.95435
1086433 1 221.843 160.746 229.106 0.0384644 -7.55687
2829311 1 214.821 167.592 229.139 0.0639475 -7.7618
2814674 1 218.121 167.617 232.789 0.0145953 -8.09416
2829433 1 220.06 177.283 232.715 0.14608 -7.23655
2843701 1 183.106 172.045 235.533 0.0459894 -5.75433
1143559 1 238.518 146.305 238.868 0.0414407 -6.6864
2844806 1 263.218 200.677 237.538 0.103397 -7.1051
2871211 1 279.004 138.682 243.747 0.32349 -6.45618
1200431 1 211.623 129.149 254.701 0.0345412 -6.43517
1288154 1 221.521 160.935 270.626 0.29356 -8.32271
3001752 1 218.165 164.161 273.951 0.237679 -8.07383
1317075 1 221.41 164.11 277.178 0.316559 -8.64509
1302674 1 221.606 164.086 280.269 0.116504 -7.32838
3046276 1 229.094 197.261 280.303 0.440855 -6.58417
3073410 1 273.478 154.926 288.641 0.452319 -6.10212
3117678 1 234.362 178.263 289.721 0.0981006 -6.46131
825891 1 149.91 124.688 170.644 0.10312 -5.90448
2526168 1 141.405 154.505 168.87 0.384417 -6.82888
971094 1 159.334 153.243 208.333 0.0445168 -6.32964
1055814 1 157.44 109.562 222.858 0.0745551 -6.73923
2785510 1 213.978 159.776 224.79 0.0861119 -7.96937
2800035 1 218.451 162.761 223.676 0.12797 -7.74891
1042874 1 221.634 156.787 226.175 0.139637 -6.87076
1072154 1 218.349 159.142 227.432 0.32962 -7.72029
2785869 1 214.085 163.773 228.432 0.0192975 -6.83187
1100002 1 248.857 134.985 229.123 0.0859919 -5.82239
2814190 1 216.816 156.16 231.055 0.202423 -7.28391
2814550 1 218.129 162.266 230.962 0.034436 -8.09179
2800033 1 223.656 164.213 231.054 0.269487 -7.71102
1100954 1 221.968 166.245 230.939 0.0934587 -7.5891
2814793 1 218.358 169.864 231.253 0.131942 -7.84597
1086913 1 222.025 172.829 230.747 0.0882089 -5.65419
2829432 1 218.055 174.794 230.702 0.0731317 -7.91141
1145608 1 267.61 199.036 242.373 0.119849 -7.18769
1230200 1 240.339 150.909 261.699 0.0968928 -7.00815
2987473 1 217.784 160.802 267.882 0.24132 -7.56455
1273873 1 219.735 162.662 269.207 0.222516 -8.11799
1273755 1 224.547 160.682 271.028 0.141903 -7.79278
1273753 1 216.394 162.404 272.152 0.235484 -8.2854
1288153 1 219.84 162.417 272.341 0.302639 -8.58025
1273754 1 223.139 162.563 272.434 0.135071 -8.68402
1288157 1 227.597 163.953 270.682 0.0649649 -7.83876
1289956 1 227.612 208.539 271.948 0.120727 -6.5892
1288274 1 219.862 162.459 275.416 0.0119366 -8.7363
1302675 1 222.873 162.498 275.539 0.159149 -8.10769
3001873 1 219.897 165.671 275.651 0.0981479 -8.29223
1316835 1 226.35 159.748 278.655 0.0514478 -6.81873
1302676 1 223.091 162.538 278.726 0.0574746 -8.08683
1302793 1 219.832 165.73 278.601 0.281265 -7.6506
3088992 1 218.172 186.16 293.605 0.416484 -6.35308
1431435 1 224.502 141.92 306.288 0.230582 -6.53962
1447988 1 200.815 200.705 307.405 0.0961035 -7.04066
