ITEM: TIMESTEP
93000
ITEM: NUMBER OF ATOMS
68
ITEM: BOX BOUNDS pp pp pp
0 360
0 360
0 360
ITEM: ATOMS id type x y z c_myKE c_myPE
2067302 1 188.329 205.283 62.8597 0.12182 -5.5028
2069589 1 206.839 266.381 65.6683 0.247319 -7.34882
2069708 1 203.567 269.589 65.3656 0.0492066 -7.1557
2082679 1 240.886 231.277 68.5515 0.127485 -6.26465
2096473 1 221.594 213.305 71.3203 0.254858 -6.95326
2111720 1 242.087 235.941 73.0017 0.042649 -6.70692
2110874 1 224.942 213.377 74.9778 0.141423 -7.6671
397514 1 221.538 216.555 74.5454 0.216266 -7.34939
2153824 1 190.994 208.846 82.5108 0.315505 -6.64177
2184668 1 203.731 261.003 88.9107 0.0727229 -6.29917
2268654 1 158.832 199.405 110.322 0.274412 -7.35394
2268774 1 159.249 202.397 109.981 0.0900444 -7.4586
640740 1 176.865 175.096 132.007 0.0138215 -7.23734
2368739 1 176.902 178.237 131.994 0.0419267 -6.70719
2397659 1 176.818 181.565 138.521 0.108321 -6.99966
2425721 1 117.8 164.845 144.865 0.302928 -6.62179
2456227 1 202.664 207.154 149.884 0.0237944 -6.10545
2455374 1 158.098 186.243 151.137 0.041264 -6.04338
2456459 1 177.515 213.382 150.947 0.159737 -6.62464
2483086 1 135.661 158.216 155.631 0.298301 -6.70883
2470860 1 180.253 213.099 154.758 0.10585 -6.76495
757393 1 220.269 218.537 157.861 0.706228 -5.60524
2513450 1 146.443 197.389 164.311 0.20599 -5.47257
2613274 1 97.3727 174.133 184.616 0.237867 -6.72573
2614015 1 164.036 191.014 184.85 0.247704 -5.38018
1086886 1 132.194 168.683 235.725 0.47964 -6.87973
2857726 1 133.566 163.957 237.648 0.0414163 -7.29266
1115446 1 128.927 168.512 238.903 0.276105 -6.72148
2871770 1 146.601 152.621 242.229 0.197618 -6.048
2858924 1 129.024 193.814 240.704 0.0146478 -5.84542
1158407 1 135.489 156.176 245.365 0.216457 -7.2115
1158166 1 133.534 151.268 246.884 0.285737 -7.25863
2900686 1 135.439 156.053 248.242 0.0789848 -7.59901
1201366 1 135.451 152.741 251.744 0.0790915 -7.238
1201487 1 133.516 154.439 250.168 0.219601 -7.89717
212001 1 243.611 264.55 32.8996 0.0327385 -6.21265
456797 1 232.712 264.489 89.2643 0.110661 -6.00173
2183825 1 194.493 239.152 92.5215 0.0844415 -7.28856
514142 1 183.323 256.32 100.102 0.146457 -5.74971
540656 1 163.943 197.822 108.613 0.193905 -6.9356
540774 1 157.841 200.846 108.386 0.0469578 -6.96523
555055 1 160.995 197.892 111.533 0.169407 -7.06981
570665 1 194.653 229.306 114.506 0.052362 -6.09356
639758 1 106.538 154.337 128.789 0.141653 -6.47723
653689 1 143.632 140.157 132.257 0.0604869 -6.60342
2354340 1 178.775 176.729 130.629 0.096414 -7.18256
2399940 1 177.026 243.572 138.388 0.0754115 -7.00162
672304 1 191.488 251.63 137.299 0.0388156 -6.50496
672425 1 194.485 255.079 136.932 0.0413077 -7.01002
684180 1 178.92 183.05 140.129 0.106716 -6.68405
700980 1 176.936 246.9 141.581 0.130906 -6.76096
743571 1 147.772 232.917 151.1 0.132534 -7.25406
757972 1 151.563 232.741 154.303 0.214291 -5.9419
826839 1 111.453 147.741 170.057 0.16188 -5.93603
814625 1 194.633 201.863 169.315 0.0163452 -6.53999
827691 1 148.081 172.076 172.074 0.259188 -6.22225
899455 1 162.918 163.724 187.953 0.239285 -6.13418
913856 1 166.056 163.666 191.195 0.356397 -6.88357
2657201 1 118.169 194.473 194.285 0.161325 -6.31393
2700046 1 134.069 189.366 207.56 0.577792 -6.76995
1030377 1 167.455 199.03 214.536 0.0399292 -6.19914
1146174 1 154.32 217.194 240.575 0.163681 -6.92241
2886286 1 133.744 154.36 246.926 0.0548787 -7.9507
1172925 1 130.618 160.672 246.796 0.348276 -5.95739
1201607 1 137.096 154.358 249.986 0.10162 -6.84156
1186731 1 149.967 146.748 251.743 0.0898738 -6.3317
1201251 1 150.287 149.62 254.913 0.504782 -7.19165
1218999 1 111.469 237.636 256.317 0.388371 -6.45758
