ITEM: TIMESTEP
93532
ITEM: NUMBER OF ATOMS
68
ITEM: BOX BOUNDS pp pp pp
0 360
0 360
0 360
ITEM: ATOMS id type x y z
297797 1 228.75 243.75 60.75
311714 1 219.75 231.75 63.75
412511 1 210.75 231.75 84.75
454871 1 210.75 210.75 93.75
512221 1 180.75 204.75 105.75
526621 1 180.75 204.75 108.75
541023 1 186.75 204.75 111.75
541144 1 189.75 207.75 111.75
598140 1 177.75 192.75 123.75
697009 1 144.75 144.75 144.75
700503 1 186.75 231.75 144.75
712369 1 144.75 168.75 147.75
727008 1 141.75 174.75 150.75
729422 1 183.75 234.75 150.75
755928 1 141.75 177.75 156.75
756048 1 141.75 180.75 156.75
800339 1 174.75 207.75 165.75
843415 1 162.75 204.75 174.75
885770 1 147.75 183.75 183.75
901248 1 141.75 210.75 186.75
943366 1 135.75 183.75 195.75
1029765 1 132.75 183.75 213.75
1045489 1 144.75 216.75 216.75
1086532 1 153.75 162.75 225.75
1087126 1 135.75 177.75 225.75
1087255 1 162.75 180.75 225.75
1116642 1 123.75 195.75 231.75
1216727 1 138.75 177.75 252.75
2053874 1 221.25 227.25 68.25
2054474 1 221.25 242.25 68.25
2069234 1 221.25 251.25 71.25
2069360 1 239.25 254.25 71.25
2083638 1 233.25 251.25 74.25
2140029 1 206.25 221.25 86.25
2182991 1 212.25 215.25 95.25
2196781 1 182.25 200.25 98.25
2254259 1 176.25 197.25 110.25
2254260 1 179.25 197.25 110.25
2283903 1 188.25 218.25 116.25
2297579 1 176.25 200.25 119.25
2397415 1 164.25 176.25 140.25
2399822 1 185.25 236.25 140.25
2399942 1 185.25 239.25 140.25
2428622 1 185.25 236.25 146.25
2439408 1 143.25 146.25 149.25
2454768 1 143.25 170.25 152.25
2455009 1 146.25 176.25 152.25
2468927 1 140.25 164.25 155.25
2483689 1 146.25 173.25 158.25
2500256 1 167.25 227.25 161.25
2512248 1 143.25 167.25 164.25
2526648 1 143.25 167.25 167.25
2627812 1 155.25 176.25 188.25
2658767 1 140.25 230.25 194.25
2714324 1 131.25 179.25 206.25
2715648 1 143.25 212.25 206.25
2745285 1 134.25 233.25 212.25
2757643 1 128.25 182.25 215.25
2757644 1 131.25 182.25 215.25
2758964 1 131.25 215.25 215.25
2758968 1 143.25 215.25 215.25
2770965 1 134.25 155.25 218.25
2802281 1 122.25 218.25 224.25
2814165 1 134.25 155.25 227.25
2815725 1 134.25 194.25 227.25
2830131 1 152.25 194.25 230.25
2844642 1 125.25 197.25 233.25
2858449 1 146.25 182.25 236.25
