ITEM: TIMESTEP
89000
ITEM: NUMBER OF ATOMS
106
ITEM: BOX BOUNDS pp pp pp
0 360
0 360
0 360
ITEM: ATOMS id type x y z c_myKE c_myPE
2325903 1 189.636 187.972 121.036 0.0563052 -7.01673
2340302 1 186.747 187.838 124.241 0.199127 -6.37428
2340423 1 189.985 191.211 124.062 0.100736 -6.76249
2369097 1 167.335 189.727 132.45 0.116556 -6.28579
2382528 1 142.001 167.106 136.885 0.0364047 -6.83269
2382649 1 141.856 165.313 138.398 0.0775444 -6.79397
654410 1 139.962 167.156 138.529 0.351006 -6.63778
2412414 1 159.559 193.516 140.227 0.272696 -6.91066
699515 1 97.0422 208.929 146.511 0.0795238 -6.17588
2455238 1 108.107 181.075 151.534 0.0548328 -6.72279
2470366 1 135.678 200.453 152.842 0.281437 -7.23001
2455966 1 133.952 202.508 151.463 0.291837 -6.7818
771062 1 181.559 197.187 158.021 0.130496 -6.76528
2586903 1 186.722 235.814 178.364 0.024363 -7.59533
859023 1 184.688 237.585 177.044 0.104734 -7.32575
2572622 1 184.907 240.859 177.159 0.0872609 -7.37698
942525 1 132.759 162.451 197.558 0.10097 -8.08325
2670648 1 141.93 168.632 197.591 0.108485 -8.12513
2656488 1 138.821 171.841 197.379 0.192161 -7.60849
2684433 1 94.1535 151.475 200.58 0.264267 -6.46748
957048 1 135.591 165.646 200.817 0.174045 -8.53838
942769 1 140.288 167.346 199.27 0.241647 -8.39023
2670407 1 140.311 157.742 202.579 0.122714 -8.14894
971326 1 135.545 162.49 203.979 0.288098 -8.12752
985607 1 138.54 162.309 204.002 0.14268 -8.4363
2684927 1 138.797 165.777 204.039 0.18885 -8.67256
957049 1 141.83 165.593 203.985 0.149651 -8.51766
2699085 1 135.66 159.241 207.268 0.0918018 -7.79504
985608 1 140.239 160.854 205.672 0.0114129 -8.67379
2699449 1 144.929 165.644 207.065 0.251455 -8.78138
971449 1 143.461 167.291 205.649 0.168909 -8.69677
971691 1 145.231 171.891 207.201 0.0371909 -8.20597
2699696 1 173.974 173.723 206.911 0.287926 -6.89606
986461 1 178.145 177.783 207.146 0.141549 -6.37771
985850 1 146.571 164.262 208.656 0.0131091 -8.67933
2713731 1 149.669 164.119 208.802 0.00809946 -8.40709
2713850 1 146.523 167.297 208.845 0.0591209 -8.77299
2728009 1 143.478 160.987 211.993 0.0317279 -8.31184
2728010 1 146.329 161.075 211.994 0.495756 -8.41542
2728129 1 143.413 164.094 211.99 0.0141566 -8.86663
2728130 1 146.498 164.129 211.882 0.142136 -8.5839
2743266 1 197.406 183.552 213.44 0.0279218 -6.05807
2742530 1 146.335 164.011 214.986 0.145043 -7.64096
2742537 1 168.505 164.081 215.5 0.060365 -7.66007
2756936 1 165.622 164.095 218.628 0.553826 -7.92705
2756938 1 171.953 164.438 218.707 0.0796888 -7.71311
2771216 1 165.943 160.925 221.819 0.130544 -7.75758
2771337 1 169.152 164.024 221.84 0.207522 -8.03955
2785736 1 165.827 164.178 224.767 0.0985221 -7.78613
2800384 1 190.819 170.61 228.073 0.118121 -7.31415
2814904 1 191.346 173.769 231.178 0.0963593 -7.15721
2842003 1 124.084 127.229 237.54 0.435825 -6.39808
554810 1 147.066 191.217 111.612 0.0718799 -6.37991
654539 1 175.289 162.46 131.981 0.401915 -6.23919
2398014 1 161.242 191.492 140.27 0.0654971 -7.11838
726430 1 208.576 159.472 150.022 0.0200025 -6.01459
741046 1 133.961 165.645 153.504 0.129041 -6.56795
756419 1 176.817 192.803 159.67 0.219529 -5.91386
812799 1 106.244 157.387 167.196 0.130093 -6.59789
2572620 1 181.88 240.424 176.51 0.456963 -7.80851
929800 1 116.037 207.594 192.478 0.208981 -6.93037
2656007 1 136.979 157.492 196.114 0.101909 -7.6886
928005 1 131.087 163.996 195.907 0.0509801 -7.72568
942646 1 134.128 164.016 196.058 0.0732542 -7.38632
2670647 1 137.244 163.978 196.111 0.348893 -7.9512
956927 1 134.041 163.996 199.342 0.600344 -8.50525
957167 1 137.312 167.244 199.283 0.248312 -8.4335
942648 1 143.641 167.163 199.45 0.0542787 -8.17454
971206 1 135.424 162.462 200.898 0.18233 -8.16149
971328 1 137.073 164 202.386 0.160992 -8.87894
2670646 1 137.239 167.186 202.304 0.0300282 -8.65638
971327 1 141.767 165.712 200.814 0.263588 -8.74218
957411 1 143.329 167.133 202.402 0.0741899 -8.43266
2685290 1 143.531 170.341 202.431 0.112905 -8.00246
943141 1 175.453 171.91 201.497 0.0553918 -6.51351
971569 1 140.318 163.923 205.528 0.0576707 -8.72161
985729 1 143.439 163.917 205.601 0.244717 -8.64805
971570 1 146.697 167.097 205.581 0.0480151 -7.9933
2699692 1 152.982 170.301 205.526 0.147945 -7.74617
2699690 1 149.757 173.523 205.637 0.160413 -7.46787
2699087 1 140.375 157.689 208.743 0.185 -8.36577
2699086 1 138.47 159.322 207.074 0.032927 -8.39268
1000008 1 140.188 160.766 208.708 0.23211 -8.78217
2713608 1 141.838 162.524 207.27 0.0982708 -8.68904
2713609 1 144.901 162.481 207.315 0.285125 -8.79616
985972 1 148.138 168.88 207.296 0.0959819 -8.74398
1000372 1 150.01 170.288 209.033 0.024138 -8.25941
985971 1 148.118 171.901 207.533 0.0234715 -8.27174
2727767 1 140.306 154.436 212.059 0.224319 -7.73375
2727886 1 137.042 157.422 211.985 0.185489 -7.28052
2727887 1 140.293 157.746 211.974 0.166507 -8.52997
2727888 1 141.829 159.402 210.42 0.0957866 -8.67447
1000129 1 141.807 162.52 210.365 0.156084 -8.85103
1000252 1 151.245 165.885 210.115 0.0781203 -7.25554
1000371 1 148.139 168.719 210.475 0.260555 -8.2157
1014288 1 141.513 156.11 213.594 0.0299536 -7.96147
1014410 1 144.775 159.301 213.566 0.535925 -8.28548
1028930 1 144.909 162.495 216.719 0.327268 -7.95302
1028931 1 147.743 162.544 216.944 0.242529 -7.75975
1029176 1 163.932 168.934 217.075 0.0161446 -7.37805
1030869 1 207.139 213.892 216.815 0.0329413 -6.30173
1043336 1 164.061 162.593 220.076 0.0599464 -7.18826
1043337 1 167.328 162.436 220.295 0.283128 -8.40896
1043457 1 167.421 165.672 220.274 0.0455202 -7.96678
1043577 1 167.025 168.839 219.932 0.0829776 -7.56319
1101303 1 186.352 172.252 232.624 0.264963 -6.87569
