ITEM: TIMESTEP
92000
ITEM: NUMBER OF ATOMS
169
ITEM: BOX BOUNDS pp pp pp
0 360
0 360
0 360
ITEM: ATOMS id type x y z
613142 1 183.75 207.75 126.75
627543 1 186.75 207.75 129.75
640387 1 198.75 168.75 132.75
641702 1 183.75 201.75 132.75
641823 1 186.75 204.75 132.75
656222 1 183.75 204.75 135.75
699065 1 192.75 195.75 144.75
699183 1 186.75 198.75 144.75
699184 1 189.75 198.75 144.75
713465 1 192.75 195.75 147.75
713581 1 180.75 198.75 147.75
713702 1 183.75 201.75 147.75
713703 1 186.75 201.75 147.75
713938 1 171.75 207.75 147.75
713939 1 174.75 207.75 147.75
727505 1 192.75 186.75 150.75
727746 1 195.75 192.75 150.75
727865 1 192.75 195.75 150.75
727866 1 195.75 195.75 150.75
727985 1 192.75 198.75 150.75
728101 1 180.75 201.75 150.75
728103 1 186.75 201.75 150.75
728340 1 177.75 207.75 150.75
742025 1 192.75 189.75 153.75
742026 1 195.75 189.75 153.75
742145 1 192.75 192.75 153.75
742265 1 192.75 195.75 153.75
742384 1 189.75 198.75 153.75
742501 1 180.75 201.75 153.75
742503 1 186.75 201.75 153.75
742504 1 189.75 201.75 153.75
742621 1 180.75 204.75 153.75
742858 1 171.75 210.75 153.75
742859 1 174.75 210.75 153.75
742978 1 171.75 213.75 153.75
756304 1 189.75 186.75 156.75
756305 1 192.75 186.75 156.75
756424 1 189.75 189.75 156.75
756425 1 192.75 189.75 156.75
756544 1 189.75 192.75 156.75
756665 1 192.75 195.75 156.75
756783 1 186.75 198.75 156.75
756903 1 186.75 201.75 156.75
757020 1 177.75 204.75 156.75
757138 1 171.75 207.75 156.75
757257 1 168.75 210.75 156.75
757258 1 171.75 210.75 156.75
757259 1 174.75 210.75 156.75
757378 1 171.75 213.75 156.75
770584 1 189.75 183.75 159.75
770823 1 186.75 189.75 159.75
770824 1 189.75 189.75 159.75
770943 1 186.75 192.75 159.75
770944 1 189.75 192.75 159.75
771064 1 189.75 195.75 159.75
771182 1 183.75 198.75 159.75
771303 1 186.75 201.75 159.75
771659 1 174.75 210.75 159.75
771661 1 180.75 210.75 159.75
771776 1 165.75 213.75 159.75
784984 1 189.75 183.75 162.75
785463 1 186.75 195.75 162.75
785582 1 183.75 198.75 162.75
785583 1 186.75 198.75 162.75
785702 1 183.75 201.75 162.75
785821 1 180.75 204.75 162.75
786059 1 174.75 210.75 162.75
786175 1 162.75 213.75 162.75
799743 1 186.75 192.75 165.75
799983 1 186.75 198.75 165.75
800340 1 177.75 207.75 165.75
800341 1 180.75 207.75 165.75
800460 1 177.75 210.75 165.75
800576 1 165.75 213.75 165.75
812947 1 198.75 162.75 168.75
814620 1 177.75 204.75 168.75
814738 1 171.75 207.75 168.75
814739 1 174.75 207.75 168.75
814741 1 180.75 207.75 168.75
829139 1 174.75 207.75 171.75
829258 1 171.75 210.75 171.75
928842 1 123.75 180.75 192.75
942285 1 132.75 156.75 195.75
956805 1 132.75 159.75 198.75
971204 1 129.75 159.75 201.75
2326622 1 185.25 206.25 125.25
2341023 1 188.25 206.25 128.25
2412781 1 182.25 200.25 143.25
2427064 1 191.25 197.25 146.25
2427300 1 179.25 203.25 146.25
2427301 1 182.25 203.25 146.25
2427419 1 176.25 206.25 146.25
2427538 1 173.25 209.25 146.25
2440504 1 191.25 173.25 149.25
2441103 1 188.25 188.25 149.25
2441224 1 191.25 191.25 149.25
2441466 1 197.25 197.25 149.25
2441583 1 188.25 200.25 149.25
2441584 1 191.25 200.25 149.25
2441700 1 179.25 203.25 149.25
2441701 1 182.25 203.25 149.25
2441820 1 179.25 206.25 149.25
2455625 1 194.25 191.25 152.25
2455626 1 197.25 191.25 152.25
2455864 1 191.25 197.25 152.25
2455984 1 191.25 200.25 152.25
2456219 1 176.25 206.25 152.25
2456220 1 179.25 206.25 152.25
2456339 1 176.25 209.25 152.25
2456458 1 173.25 212.25 152.25
2469663 1 188.25 182.25 155.25
2469785 1 194.25 185.25 155.25
2469905 1 194.25 188.25 155.25
2469906 1 197.25 188.25 155.25
2470024 1 191.25 191.25 155.25
2470143 1 188.25 194.25 155.25
2470263 1 188.25 197.25 155.25
2470264 1 191.25 197.25 155.25
2470383 1 188.25 200.25 155.25
2470385 1 194.25 200.25 155.25
2470502 1 185.25 203.25 155.25
2470620 1 179.25 206.25 155.25
2470739 1 176.25 209.25 155.25
2483943 1 188.25 179.25 158.25
2484064 1 191.25 182.25 158.25
2484663 1 188.25 197.25 158.25
2484900 1 179.25 203.25 158.25
2484901 1 182.25 203.25 158.25
2484902 1 185.25 203.25 158.25
2485019 1 176.25 206.25 158.25
2485021 1 182.25 206.25 158.25
2485137 1 170.25 209.25 158.25
2485139 1 176.25 209.25 158.25
2485256 1 167.25 212.25 158.25
2485260 1 179.25 212.25 158.25
2485374 1 161.25 215.25 158.25
2498344 1 191.25 179.25 161.25
2498703 1 188.25 188.25 161.25
2499063 1 188.25 197.25 161.25
2499183 1 188.25 200.25 161.25
2499184 1 191.25 200.25 161.25
2499302 1 185.25 203.25 161.25
2499420 1 179.25 206.25 161.25
2499539 1 176.25 209.25 161.25
2499656 1 167.25 212.25 161.25
2499657 1 170.25 212.25 161.25
2499775 1 164.25 215.25 161.25
2513342 1 185.25 194.25 164.25
2513343 1 188.25 194.25 164.25
2513701 1 182.25 203.25 164.25
2513822 1 185.25 206.25 164.25
2513938 1 173.25 209.25 164.25
2513940 1 179.25 209.25 164.25
2514057 1 170.25 212.25 164.25
2514058 1 173.25 212.25 164.25
2514176 1 167.25 215.25 164.25
2528102 1 185.25 203.25 167.25
2528219 1 176.25 206.25 167.25
2528221 1 182.25 206.25 167.25
2528338 1 173.25 209.25 167.25
2528339 1 176.25 209.25 167.25
2528458 1 173.25 212.25 167.25
2528459 1 176.25 212.25 167.25
2542619 1 176.25 206.25 170.25
2569032 1 215.25 146.25 176.25
2670406 1 137.25 161.25 197.25
2684684 1 131.25 158.25 200.25
2684804 1 131.25 161.25 200.25
2698014 1 161.25 131.25 203.25
