ITEM: TIMESTEP
90000
ITEM: NUMBER OF ATOMS
72
ITEM: BOX BOUNDS pp pp pp
0 360
0 360
0 360
ITEM: ATOMS id type x y z
484023 1 186.75 219.75 99.75
541374 1 159.75 213.75 111.75
555905 1 192.75 216.75 114.75
625493 1 156.75 156.75 129.75
628396 1 225.75 228.75 129.75
628642 1 243.75 234.75 129.75
640011 1 150.75 159.75 132.75
643518 1 231.75 246.75 132.75
643996 1 225.75 258.75 132.75
654053 1 156.75 150.75 135.75
657563 1 246.75 237.75 135.75
657675 1 222.75 240.75 135.75
671467 1 198.75 225.75 138.75
672313 1 216.75 246.75 138.75
700752 1 213.75 237.75 144.75
714311 1 210.75 216.75 147.75
715271 1 210.75 240.75 147.75
715272 1 213.75 240.75 147.75
716355 1 222.75 267.75 147.75
729550 1 207.75 237.75 150.75
730397 1 228.75 258.75 150.75
740935 1 162.75 162.75 153.75
755339 1 174.75 162.75 156.75
755459 1 174.75 165.75 156.75
758233 1 216.75 234.75 156.75
772740 1 177.75 237.75 159.75
772867 1 198.75 240.75 159.75
784016 1 165.75 159.75 162.75
787140 1 177.75 237.75 162.75
787390 1 207.75 243.75 162.75
798175 1 162.75 153.75 165.75
812813 1 156.75 159.75 168.75
816063 1 186.75 240.75 168.75
816068 1 201.75 240.75 168.75
827095 1 162.75 156.75 171.75
830815 1 162.75 249.75 171.75
844139 1 174.75 222.75 174.75
902709 1 204.75 246.75 186.75
917109 1 204.75 246.75 189.75
2269016 1 167.25 206.25 113.25
2283918 1 233.25 218.25 116.25
2371041 1 242.25 236.25 134.25
2383014 1 161.25 176.25 137.25
2383866 1 197.25 197.25 137.25
2384950 1 209.25 224.25 137.25
2396450 1 149.25 152.25 140.25
2399350 1 209.25 224.25 140.25
2425615 1 164.25 161.25 146.25
2428753 1 218.25 239.25 146.25
2428870 1 209.25 242.25 146.25
2428880 1 239.25 242.25 146.25
2440015 1 164.25 161.25 149.25
2443153 1 218.25 239.25 149.25
2458276 1 227.25 257.25 152.25
2482974 1 161.25 155.25 158.25
2497255 1 164.25 152.25 161.25
2498937 1 170.25 194.25 161.25
2499057 1 170.25 197.25 161.25
2500136 1 167.25 224.25 161.25
2511894 1 161.25 158.25 164.25
2512254 1 161.25 167.25 164.25
2515021 1 182.25 236.25 164.25
2526654 1 161.25 167.25 167.25
2529661 1 182.25 242.25 167.25
2530015 1 164.25 251.25 167.25
2544061 1 182.25 242.25 170.25
2544174 1 161.25 245.25 170.25
2559295 1 164.25 263.25 173.25
2572627 1 200.25 236.25 176.25
2587015 1 164.25 236.25 179.25
2587380 1 179.25 245.25 179.25
2630099 1 176.25 233.25 188.25
