ITEM: TIMESTEP
93325
ITEM: NUMBER OF ATOMS
67
ITEM: BOX BOUNDS pp pp pp
0 360
0 360
0 360
ITEM: ATOMS id type x y z
711783 1 186.75 153.75 147.75
727627 1 198.75 189.75 150.75
739265 1 192.75 120.75 153.75
788133 1 276.75 261.75 162.75
799629 1 204.75 189.75 165.75
802146 1 195.75 252.75 165.75
813534 1 159.75 177.75 168.75
813653 1 156.75 180.75 168.75
813909 1 204.75 186.75 168.75
814030 1 207.75 189.75 168.75
828191 1 210.75 183.75 171.75
828310 1 207.75 186.75 171.75
842590 1 207.75 183.75 174.75
856610 1 147.75 174.75 177.75
857715 1 222.75 201.75 177.75
857716 1 225.75 201.75 177.75
872116 1 225.75 201.75 180.75
872235 1 222.75 204.75 180.75
872236 1 225.75 204.75 180.75
872237 1 228.75 204.75 180.75
872357 1 228.75 207.75 180.75
873444 1 249.75 234.75 180.75
874514 1 219.75 261.75 180.75
886636 1 225.75 204.75 183.75
888914 1 219.75 261.75 183.75
974597 1 228.75 243.75 201.75
988168 1 261.75 222.75 204.75
988996 1 225.75 243.75 204.75
989122 1 243.75 246.75 204.75
1130496 1 285.75 180.75 234.75
1130843 1 246.75 189.75 234.75
2439783 1 188.25 155.25 149.25
2441227 1 200.25 191.25 149.25
2454184 1 191.25 155.25 152.25
2454778 1 173.25 170.25 152.25
2469179 1 176.25 170.25 155.25
2483699 1 176.25 173.25 158.25
2544660 1 179.25 257.25 170.25
2556677 1 230.25 197.25 173.25
2556796 1 227.25 200.25 173.25
2571076 1 227.25 197.25 176.25
2571195 1 224.25 200.25 176.25
2571196 1 227.25 200.25 176.25
2571197 1 230.25 200.25 176.25
2571316 1 227.25 203.25 176.25
2585716 1 227.25 203.25 179.25
2586923 1 248.25 233.25 179.25
2600236 1 227.25 206.25 182.25
2602393 1 218.25 260.25 182.25
2628095 1 284.25 182.25 188.25
2656152 1 215.25 164.25 194.25
2687957 1 230.25 239.25 200.25
2688076 1 227.25 242.25 200.25
2688077 1 230.25 242.25 200.25
2702356 1 227.25 239.25 203.25
2702475 1 224.25 242.25 203.25
2702476 1 227.25 242.25 203.25
2716262 1 185.25 227.25 206.25
2800386 1 197.25 170.25 224.25
2801497 1 290.25 197.25 224.25
2815876 1 227.25 197.25 227.25
2815898 1 293.25 197.25 227.25
2831489 1 266.25 227.25 230.25
2846255 1 284.25 236.25 233.25
2846376 1 287.25 239.25 233.25
2858496 1 287.25 182.25 236.25
2860775 1 284.25 239.25 236.25
