ITEM: TIMESTEP
89000
ITEM: NUMBER OF ATOMS
88
ITEM: BOX BOUNDS pp pp pp
0 360
0 360
0 360
ITEM: ATOMS id type x y z
697009 1 144.75 144.75 144.75
739489 1 144.75 126.75 153.75
798301 1 180.75 156.75 165.75
798421 1 180.75 159.75 165.75
812222 1 183.75 144.75 168.75
812228 1 201.75 144.75 168.75
812705 1 192.75 156.75 168.75
827700 1 177.75 171.75 171.75
841259 1 174.75 150.75 174.75
841389 1 204.75 153.75 174.75
841625 1 192.75 159.75 174.75
854701 1 180.75 126.75 177.75
855654 1 159.75 150.75 177.75
855778 1 171.75 153.75 177.75
856258 1 171.75 165.75 177.75
869695 1 162.75 141.75 180.75
869826 1 195.75 144.75 180.75
870052 1 153.75 150.75 180.75
870057 1 168.75 150.75 180.75
870063 1 186.75 150.75 180.75
870177 1 168.75 153.75 180.75
870899 1 174.75 171.75 180.75
884684 1 129.75 156.75 183.75
884709 1 204.75 156.75 183.75
884823 1 186.75 159.75 183.75
885061 1 180.75 165.75 183.75
898619 1 174.75 144.75 186.75
899331 1 150.75 162.75 186.75
899345 1 192.75 162.75 186.75
912542 1 183.75 132.75 189.75
913261 1 180.75 150.75 189.75
928021 1 180.75 159.75 192.75
956699 1 174.75 156.75 198.75
971107 1 198.75 156.75 201.75
985502 1 183.75 156.75 204.75
1042387 1 198.75 138.75 216.75
1057147 1 198.75 147.75 219.75
1071186 1 195.75 138.75 222.75
1099626 1 195.75 129.75 228.75
1099746 1 195.75 132.75 228.75
1099868 1 201.75 135.75 228.75
1128665 1 192.75 135.75 234.75
1128787 1 198.75 138.75 234.75
1129265 1 192.75 150.75 234.75
1172347 1 198.75 147.75 243.75
1186628 1 201.75 144.75 246.75
1200909 1 204.75 141.75 249.75
1214706 1 195.75 126.75 252.75
1315989 1 204.75 138.75 273.75
2438823 1 188.25 131.25 149.25
2453329 1 146.25 134.25 152.25
2467729 1 146.25 134.25 155.25
2482369 1 146.25 140.25 158.25
2540224 1 191.25 146.25 170.25
2540819 1 176.25 161.25 170.25
2553781 1 182.25 125.25 173.25
2555467 1 200.25 167.25 173.25
2555818 1 173.25 176.25 173.25
2568526 1 137.25 134.25 176.25
2568779 1 176.25 140.25 176.25
2569137 1 170.25 149.25 176.25
2569138 1 173.25 149.25 176.25
2569373 1 158.25 155.25 176.25
2569973 1 158.25 170.25 176.25
2569977 1 170.25 170.25 176.25
2570339 1 176.25 179.25 176.25
2583655 1 164.25 152.25 179.25
2583660 1 179.25 152.25 179.25
2583775 1 164.25 155.25 179.25
2597816 1 167.25 146.25 182.25
2598178 1 173.25 155.25 182.25
2598182 1 185.25 155.25 182.25
2598421 1 182.25 161.25 182.25
2611862 1 185.25 137.25 185.25
2612455 1 164.25 152.25 185.25
2612457 1 170.25 152.25 185.25
2612572 1 155.25 155.25 185.25
2613070 1 209.25 167.25 185.25
2626970 1 149.25 155.25 188.25
2640286 1 137.25 128.25 191.25
2827625 1 194.25 131.25 230.25
2841899 1 176.25 128.25 233.25
2870586 1 197.25 125.25 239.25
2885707 1 200.25 143.25 242.25
2899745 1 194.25 134.25 245.25
2914268 1 203.25 137.25 248.25
2929269 1 206.25 152.25 251.25
2943669 1 206.25 152.25 254.25
