ITEM: TIMESTEP
87000
ITEM: NUMBER OF ATOMS
75
ITEM: BOX BOUNDS pp pp pp
0 360
0 360
0 360
ITEM: ATOMS id type x y z
726161 1 120.75 153.75 150.75
740682 1 123.75 156.75 153.75
754855 1 162.75 150.75 156.75
783771 1 150.75 153.75 162.75
811378 1 171.75 123.75 168.75
811973 1 156.75 138.75 168.75
812210 1 147.75 144.75 168.75
826495 1 162.75 141.75 171.75
826741 1 180.75 147.75 171.75
841126 1 135.75 147.75 174.75
841132 1 153.75 147.75 174.75
855057 1 168.75 135.75 177.75
855415 1 162.75 144.75 177.75
855532 1 153.75 147.75 177.75
856124 1 129.75 162.75 177.75
869337 1 168.75 132.75 180.75
869575 1 162.75 138.75 180.75
883616 1 165.75 129.75 183.75
883972 1 153.75 138.75 183.75
883973 1 156.75 138.75 183.75
884093 1 156.75 141.75 183.75
898614 1 159.75 144.75 186.75
898734 1 159.75 147.75 186.75
911582 1 183.75 108.75 189.75
912296 1 165.75 126.75 189.75
912657 1 168.75 135.75 189.75
912775 1 162.75 138.75 189.75
926695 1 162.75 126.75 192.75
941933 1 156.75 147.75 195.75
971343 1 186.75 162.75 201.75
998455 1 162.75 120.75 207.75
1057859 1 174.75 165.75 219.75
1086540 1 177.75 162.75 225.75
1115821 1 180.75 174.75 231.75
1129625 1 192.75 159.75 234.75
1199715 1 222.75 111.75 249.75
2382159 1 116.25 155.25 137.25
2425238 1 113.25 152.25 146.25
2467016 1 167.25 116.25 155.25
2467252 1 155.25 122.25 155.25
2483082 1 125.25 158.25 158.25
2525696 1 167.25 143.25 167.25
2539377 1 170.25 125.25 170.25
2539733 1 158.25 134.25 170.25
2539972 1 155.25 140.25 170.25
2540813 1 158.25 161.25 170.25
2570089 1 146.25 173.25 176.25
2582097 1 170.25 113.25 179.25
2582699 1 176.25 128.25 179.25
2583172 1 155.25 140.25 179.25
2583174 1 161.25 140.25 179.25
2583651 1 152.25 152.25 179.25
2597335 1 164.25 134.25 182.25
2598051 1 152.25 152.25 182.25
2598169 1 146.25 155.25 182.25
2611497 1 170.25 128.25 185.25
2611741 1 182.25 134.25 185.25
2625653 1 158.25 122.25 188.25
2626136 1 167.25 134.25 188.25
2626256 1 167.25 137.25 188.25
2626855 1 164.25 152.25 188.25
2640895 1 164.25 143.25 191.25
2655411 1 152.25 146.25 194.25
2669453 1 158.25 137.25 197.25
2742187 1 200.25 155.25 212.25
2742781 1 182.25 170.25 212.25
2783357 1 230.25 104.25 221.25
2783959 1 236.25 119.25 221.25
2799296 1 167.25 143.25 224.25
2814901 1 182.25 173.25 227.25
2870240 1 239.25 116.25 239.25
2870471 1 212.25 122.25 239.25
2871548 1 203.25 149.25 239.25
2927716 1 227.25 113.25 251.25
2927957 1 230.25 119.25 251.25
