ITEM: TIMESTEP
89336
ITEM: NUMBER OF ATOMS
66
ITEM: BOX BOUNDS pp pp pp
0 360
0 360
0 360
ITEM: ATOMS id type x y z
655143 1 186.75 177.75 135.75
682872 1 213.75 150.75 141.75
697866 1 195.75 165.75 144.75
712264 1 189.75 165.75 147.75
712750 1 207.75 177.75 147.75
727154 1 219.75 177.75 150.75
727507 1 198.75 186.75 150.75
756191 1 210.75 183.75 156.75
757361 1 120.75 213.75 156.75
770445 1 132.75 180.75 159.75
770462 1 183.75 180.75 159.75
770465 1 192.75 180.75 159.75
798784 1 189.75 168.75 165.75
799623 1 186.75 189.75 165.75
799624 1 189.75 189.75 165.75
800326 1 135.75 207.75 165.75
814267 1 198.75 195.75 168.75
827344 1 189.75 162.75 171.75
841963 1 126.75 168.75 174.75
843062 1 183.75 195.75 174.75
843424 1 189.75 204.75 174.75
843425 1 192.75 204.75 174.75
872098 1 171.75 201.75 180.75
886139 1 174.75 192.75 183.75
886861 1 180.75 210.75 183.75
2281504 1 191.25 158.25 116.25
2381942 1 185.25 149.25 137.25
2411096 1 167.25 158.25 143.25
2411097 1 170.25 158.25 143.25
2411105 1 194.25 158.25 143.25
2411582 1 185.25 170.25 143.25
2412434 1 221.25 191.25 143.25
2426215 1 164.25 176.25 146.25
2440265 1 194.25 167.25 149.25
2440379 1 176.25 170.25 149.25
2440740 1 179.25 179.25 149.25
2454660 1 179.25 167.25 152.25
2454900 1 179.25 173.25 152.25
2456088 1 143.25 203.25 152.25
2468702 1 185.25 158.25 155.25
2469906 1 197.25 188.25 155.25
2483822 1 185.25 176.25 158.25
2484069 1 206.25 182.25 158.25
2496889 1 146.25 143.25 161.25
2496890 1 149.25 143.25 161.25
2498083 1 128.25 173.25 161.25
2498234 1 221.25 176.25 161.25
2498578 1 173.25 185.25 161.25
2498703 1 188.25 188.25 161.25
2498943 1 188.25 194.25 161.25
2512742 1 185.25 179.25 164.25
2512981 1 182.25 185.25 164.25
2512986 1 197.25 185.25 164.25
2513097 1 170.25 188.25 164.25
2513111 1 212.25 188.25 164.25
2527620 1 179.25 191.25 167.25
2527625 1 194.25 191.25 167.25
2541899 1 176.25 188.25 170.25
2542017 1 170.25 191.25 170.25
2556296 1 167.25 188.25 173.25
2585092 1 155.25 188.25 179.25
2585461 1 182.25 197.25 179.25
2599020 1 179.25 176.25 182.25
2599986 1 197.25 200.25 182.25
2613899 1 176.25 188.25 185.25
2729686 1 137.25 203.25 209.25
