ITEM: TIMESTEP
88000
ITEM: NUMBER OF ATOMS
62
ITEM: BOX BOUNDS pp pp pp
0 360
0 360
0 360
ITEM: ATOMS id type x y z c_myKE c_myPE
2453813 1 156.155 144.908 151.461 0.0484612 -6.57443
2467368 1 139.954 121.103 154.479 0.121204 -6.39322
2584026 1 197.341 159.216 178.272 0.0984541 -6.43363
2686255 1 162.659 199.386 202.452 0.269441 -6.29691
2755852 1 154.766 135.499 210.321 0.0665066 -7.08615
2728140 1 180.177 162.495 210.335 0.460643 -6.23405
2715158 1 106.822 199.624 210.166 0.0925509 -7.22006
2729558 1 110.003 202.502 210.449 0.148447 -7.99528
2729678 1 111.478 207.047 208.845 0.305933 -8.72212
1001798 1 109.817 208.654 210.152 0.211211 -7.99702
2729799 1 113.071 208.815 210.151 0.139914 -8.03828
1012728 1 142.294 111.384 213.753 0.091808 -8.02147
2740848 1 141.499 113.89 213.81 0.145547 -7.50387
1030599 1 113.492 205.41 213.515 0.0463768 -8.09539
2744197 1 106.88 208.576 213.318 0.0932688 -7.3548
2744198 1 110.188 208.726 213.691 0.22104 -7.08649
1026048 1 139.007 82.5081 216.712 0.13665 -7.70751
1027128 1 138.559 110.954 216.307 0.599262 -8.42698
2741695 1 159.569 138.612 215.975 0.230384 -7.99524
1028332 1 156.222 142.379 216.635 0.0696044 -7.09874
2729681 1 113.2 202.888 216.991 0.0592449 -7.85478
1030361 1 116.352 202.314 216.761 0.111664 -7.69001
2772880 1 116.357 205.627 216.801 0.132217 -8.0435
1045002 1 119.554 208.891 216.761 0.201083 -7.48043
1041527 1 139.258 114.401 219.687 0.0417251 -7.11663
1056652 1 151.291 135.492 219.785 0.0121173 -6.36782
1071414 1 161.702 140.146 219.861 0.308811 -8.07133
2782003 1 123.831 63.2707 222.748 0.139214 -6.81365
1069368 1 142.049 89.1019 223.282 0.0397508 -6.41896
2797489 1 146.643 94.0842 221.751 0.143445 -6.87184
1055210 1 143.145 97.4085 221.433 0.0634177 -7.10173
2829055 1 162.497 165.461 232.649 0.334075 -6.52745
740455 1 160.9 146.811 150.256 0.0716235 -6.81599
798164 1 122.58 153.765 164.055 0.167132 -6.10905
2639098 1 172.117 95.4924 191.529 0.554435 -5.97265
942389 1 78.2805 159.479 198.055 0.207743 -6.41868
987889 1 143.464 221.383 202.199 0.108949 -6.64245
2698494 1 156.441 133.944 205.587 0.26339 -7.16043
2701489 1 144.897 223.444 204.186 0.32508 -6.72356
999171 1 152.936 133.987 208.753 0.103707 -7.57695
2712652 1 153.355 137.164 208.746 0.235911 -6.72367
1001677 1 108.369 203.995 208.833 0.0500876 -7.60192
2744076 1 105.182 204.282 212.06 0.0215165 -7.93263
1016199 1 111.767 204.059 211.929 0.369137 -7.75337
1027006 1 137.69 108.393 215.433 0.0888244 -7.71901
1012851 1 143.793 112.943 215.327 0.025844 -8.39641
1045120 1 115.029 207.34 215.091 0.158548 -7.71082
2753687 1 138.449 79.8437 216.935 0.106723 -6.8745
1040569 1 143.505 87.6158 218.131 0.20888 -7.38165
1027008 1 139.514 108.486 217.619 0.22137 -7.38021
1041409 1 141.007 110.679 218.028 0.0428808 -8.06049
2783809 1 143.074 112.51 218.118 0.0138499 -7.77163
1041410 1 144.505 114.488 217.452 0.17064 -7.24335
1044762 1 117.986 200.899 218.226 0.216001 -7.57072
2758361 1 117.954 204 218.277 0.0522832 -8.4552
1030483 1 121.172 204.037 218.14 0.366654 -7.5027
1054968 1 141.734 86.1692 219.713 0.11377 -7.3993
1055088 1 143.521 90.5827 221.623 0.200459 -7.52846
2784533 1 156.286 137.155 221.625 0.0627732 -7.28127
2784893 1 159.709 140.264 221.577 0.0427812 -7.56707
2758480 1 117.824 204.079 221.457 0.390762 -7.43245
1068523 1 122.771 65.1593 224.308 0.184006 -6.63618
