ITEM: TIMESTEP
90691
ITEM: NUMBER OF ATOMS
43
ITEM: BOX BOUNDS pp pp pp
0 360
0 360
0 360
ITEM: ATOMS id type x y z
696767 1 138.75 138.75 144.75
696770 1 147.75 138.75 144.75
753894 1 159.75 126.75 156.75
797458 1 171.75 135.75 165.75
856380 1 177.75 168.75 177.75
870778 1 171.75 168.75 180.75
927663 1 186.75 150.75 192.75
941575 1 162.75 138.75 195.75
970843 1 126.75 150.75 201.75
971443 1 126.75 165.75 201.75
1014890 1 147.75 171.75 210.75
1027851 1 150.75 135.75 213.75
1027852 1 153.75 135.75 213.75
1029172 1 153.75 168.75 213.75
1058564 1 129.75 183.75 219.75
1072722 1 123.75 177.75 222.75
1072850 1 147.75 180.75 222.75
1085682 1 123.75 141.75 225.75
1188404 1 129.75 189.75 246.75
1216364 1 129.75 168.75 252.75
1216722 1 123.75 177.75 252.75
1230881 1 120.75 171.75 255.75
1259322 1 123.75 162.75 261.75
2439167 1 140.25 140.25 149.25
2453567 1 140.25 140.25 152.25
2482367 1 140.25 140.25 158.25
2597819 1 176.25 146.25 182.25
2641610 1 149.25 161.25 191.25
2655766 1 137.25 155.25 194.25
2668977 1 170.25 125.25 197.25
2670170 1 149.25 155.25 197.25
2685289 1 146.25 173.25 200.25
2699325 1 134.25 164.25 203.25
2712776 1 167.25 140.25 206.25
2742402 1 125.25 161.25 212.25
2742887 1 140.25 173.25 212.25
2755848 1 143.25 137.25 215.25
2771683 1 128.25 173.25 218.25
2814049 1 146.25 152.25 227.25
2857484 1 131.25 158.25 236.25
2871521 1 122.25 149.25 239.25
2872839 1 116.25 182.25 239.25
2915687 1 140.25 173.25 248.25
