ITEM: TIMESTEP
90691
ITEM: NUMBER OF ATOMS
43
ITEM: BOX BOUNDS pp pp pp
0 360
0 360
0 360
ITEM: ATOMS id type x y z c_myKE c_myPE
2526404 1 127.354 161.175 167.243 0 -6.58782
2555082 1 120.929 158.05 171.996 0 -6.9729
2569362 1 120.702 154.578 175.061 0 -6.59395
2627585 1 196.139 168.694 189.734 0 -6.82258
2627704 1 192.883 171.951 189.856 0 -6.54642
928727 1 138.713 175.058 194.18 0 -6.82687
971925 1 135.456 174.946 197.441 0 -6.54507
2742525 1 135.449 161.108 211.834 0 -8.24744
2756810 1 137.819 158.961 215.739 0 -7.94986
1000005 1 135.476 161.041 214.947 0 -8.65567
1029047 1 138.388 161.28 214.814 0 -8.16071
1014645 1 138.01 158.351 218.295 0 -7.4994
1057607 1 142.433 157.716 220.211 0 -8.00225
1014646 1 131.905 161.17 218.334 0 -7.85108
2728006 1 138.695 161.445 220.347 0 -8.15956
2756811 1 138.483 159.376 221.916 0 -8.27212
2873428 1 78.118 199.326 243.966 0 -6.2549
1173288 1 136.721 160.714 248.619 0 -7.44616
2857966 1 138.718 162.211 250.47 0 -7.41595
1172926 1 136.707 164.056 251.949 0 -7.43224
2959958 1 110.014 202.522 263.11 0 -6.25444
3029797 1 103.631 143.152 279.055 0 -6.25504
710202 1 119.11 109.737 146.592 0 -6.5472
724482 1 119.233 106.481 149.847 0 -6.82249
812804 1 125.563 159.517 169.035 0 -6.89019
854211 1 149.89 111.602 178.568 0 -6.25655
926224 1 191.355 108.421 191.335 0 -6.25519
998810 1 143.508 125.612 210.483 0 -6.2553
1014527 1 137.077 159.459 210.293 0 -7.86368
985490 1 139.868 159.203 213.958 0 -8.3886
1072005 1 133.852 162.732 213.628 0 -8.08722
2785728 1 133.612 159.514 216.646 0 -8.07437
1057485 1 130.666 162.759 216.606 0 -7.42287
2771205 1 133.922 162.17 216.864 0 -8.72982
1057126 1 136.89 153.976 221.495 0 -7.96428
1057605 1 135.162 155.915 221.214 0 -8.14052
1072249 1 134.61 160.645 221.595 0 -8.06601
2771090 1 140.302 159.401 223.841 0 -7.69798
1099381 1 179.844 121.18 232.806 0 -6.25468
2886647 1 134.711 164.114 250.205 0 -7.71308
1246489 1 143.494 202.192 264.789 0 -6.91343
2974368 1 141.562 204.168 265.91 0 -7.526
1275290 1 144.871 204.207 269.235 0 -6.57209
