ITEM: TIMESTEP
92000
ITEM: NUMBER OF ATOMS
78
ITEM: BOX BOUNDS pp pp pp
0 360
0 360
0 360
ITEM: ATOMS id type x y z
768769 1 144.75 138.75 159.75
768888 1 141.75 141.75 159.75
783408 1 141.75 144.75 162.75
784007 1 138.75 159.75 162.75
797689 1 144.75 141.75 165.75
797808 1 141.75 144.75 165.75
797809 1 144.75 144.75 165.75
812209 1 144.75 144.75 168.75
812329 1 144.75 147.75 168.75
826610 1 147.75 144.75 171.75
826729 1 144.75 147.75 171.75
856629 1 204.75 174.75 177.75
856750 1 207.75 177.75 177.75
955009 1 144.75 114.75 198.75
958008 1 141.75 189.75 198.75
958128 1 141.75 192.75 198.75
958246 1 135.75 195.75 198.75
958367 1 138.75 198.75 198.75
972407 1 138.75 189.75 201.75
972526 1 135.75 192.75 201.75
972527 1 138.75 192.75 201.75
986194 1 99.75 174.75 204.75
986927 1 138.75 192.75 204.75
987040 1 117.75 195.75 204.75
987161 1 120.75 198.75 204.75
1027868 1 201.75 135.75 213.75
1130934 1 159.75 192.75 234.75
1143544 1 189.75 147.75 237.75
1160576 1 165.75 213.75 240.75
1173419 1 174.75 174.75 243.75
1174977 1 168.75 213.75 243.75
1187939 1 174.75 177.75 246.75
1259829 1 204.75 174.75 261.75
1333140 1 177.75 207.75 276.75
2310164 1 131.25 155.25 122.25
2338846 1 137.25 152.25 128.25
2366321 1 122.25 119.25 134.25
2366442 1 125.25 122.25 134.25
2394153 1 98.25 95.25 140.25
2394639 1 116.25 107.25 140.25
2409883 1 128.25 128.25 143.25
2424398 1 113.25 131.25 146.25
2438678 1 113.25 128.25 149.25
2467968 1 143.25 140.25 155.25
2482248 1 143.25 137.25 158.25
2482367 1 140.25 140.25 158.25
2482368 1 143.25 140.25 158.25
2484421 1 182.25 191.25 158.25
2495439 1 116.25 107.25 161.25
2496768 1 143.25 140.25 161.25
2496769 1 146.25 140.25 161.25
2496888 1 143.25 143.25 161.25
2509840 1 119.25 107.25 164.25
2511168 1 143.25 140.25 164.25
2511288 1 143.25 143.25 164.25
2511407 1 140.25 146.25 164.25
2525570 1 149.25 140.25 167.25
2525689 1 146.25 143.25 167.25
2525808 1 143.25 146.25 167.25
2539969 1 146.25 140.25 170.25
2540089 1 146.25 143.25 170.25
2540090 1 149.25 143.25 170.25
2540209 1 146.25 146.25 170.25
2554609 1 146.25 146.25 173.25
2554610 1 149.25 146.25 173.25
2554729 1 146.25 149.25 173.25
2568890 1 149.25 143.25 176.25
2569009 1 146.25 146.25 176.25
2582559 1 116.25 125.25 179.25
2657453 1 158.25 197.25 194.25
2671608 1 143.25 191.25 197.25
2686007 1 140.25 191.25 200.25
2686125 1 134.25 194.25 200.25
2686126 1 137.25 194.25 200.25
2700520 1 119.25 194.25 203.25
2831445 1 134.25 227.25 230.25
2844911 1 212.25 203.25 233.25
3046620 1 179.25 206.25 275.25
