ITEM: TIMESTEP
89663
ITEM: NUMBER OF ATOMS
93
ITEM: BOX BOUNDS pp pp pp
0 360
0 360
0 360
ITEM: ATOMS id type x y z
611459 1 174.75 165.75 126.75
625370 1 147.75 153.75 129.75
682739 1 174.75 147.75 141.75
682859 1 174.75 150.75 141.75
682979 1 174.75 153.75 141.75
683099 1 174.75 156.75 141.75
683100 1 177.75 156.75 141.75
683105 1 192.75 156.75 141.75
683225 1 192.75 159.75 141.75
697621 1 180.75 159.75 144.75
697741 1 180.75 162.75 144.75
697854 1 159.75 165.75 144.75
711654 1 159.75 150.75 147.75
712136 1 165.75 162.75 147.75
712142 1 183.75 162.75 147.75
712143 1 186.75 162.75 147.75
712144 1 189.75 162.75 147.75
712262 1 183.75 165.75 147.75
726178 1 171.75 153.75 150.75
726420 1 177.75 159.75 150.75
726540 1 177.75 162.75 150.75
727507 1 198.75 186.75 150.75
740578 1 171.75 153.75 153.75
740579 1 174.75 153.75 153.75
740696 1 165.75 156.75 153.75
755102 1 183.75 156.75 156.75
766981 1 180.75 93.75 159.75
769262 1 183.75 150.75 159.75
798660 1 177.75 165.75 165.75
798889 1 144.75 171.75 165.75
839228 1 201.75 99.75 174.75
868749 1 204.75 117.75 180.75
882426 1 195.75 99.75 183.75
896591 1 210.75 93.75 186.75
896708 1 201.75 96.75 186.75
897191 1 210.75 108.75 186.75
910628 1 201.75 84.75 189.75
911947 1 198.75 117.75 189.75
924546 1 195.75 72.75 192.75
925865 1 192.75 105.75 192.75
926229 1 204.75 114.75 192.75
939547 1 198.75 87.75 195.75
940031 1 210.75 99.75 195.75
940146 1 195.75 102.75 195.75
940265 1 192.75 105.75 195.75
968591 1 210.75 93.75 201.75
983105 1 192.75 96.75 204.75
1040234 1 219.75 84.75 216.75
1154602 1 243.75 63.75 240.75
2382173 1 158.25 155.25 137.25
2382413 1 158.25 161.25 137.25
2396581 1 182.25 155.25 140.25
2410859 1 176.25 152.25 143.25
2410972 1 155.25 155.25 143.25
2411223 1 188.25 161.25 143.25
2411465 1 194.25 167.25 143.25
2411826 1 197.25 176.25 143.25
2422032 1 215.25 71.25 146.25
2425742 1 185.25 164.25 146.25
2425743 1 188.25 164.25 146.25
2425855 1 164.25 167.25 146.25
2425860 1 179.25 167.25 146.25
2439781 1 182.25 155.25 149.25
2440018 1 173.25 161.25 149.25
2440142 1 185.25 164.25 149.25
2453813 1 158.25 146.25 152.25
2454054 1 161.25 152.25 152.25
2455024 1 191.25 176.25 152.25
2468823 1 188.25 161.25 155.25
2482739 1 176.25 149.25 158.25
2483344 1 191.25 164.25 158.25
2494508 1 203.25 83.25 161.25
2512148 1 203.25 164.25 164.25
2512386 1 197.25 170.25 164.25
2552344 1 191.25 89.25 173.25
2567348 1 203.25 104.25 176.25
2567471 1 212.25 107.25 176.25
2611027 1 200.25 116.25 185.25
2624468 1 203.25 92.25 188.25
2624470 1 209.25 92.25 188.25
2624586 1 197.25 95.25 188.25
2624953 1 218.25 104.25 188.25
2625068 1 203.25 107.25 188.25
2638266 1 197.25 77.25 191.25
2638744 1 191.25 89.25 191.25
2638866 1 197.25 92.25 191.25
2639111 1 212.25 98.25 191.25
2653508 1 203.25 98.25 194.25
2654103 1 188.25 113.25 194.25
2668512 1 215.25 113.25 197.25
2710988 1 203.25 95.25 206.25
2710989 1 206.25 95.25 206.25
2711467 1 200.25 107.25 206.25
