ITEM: TIMESTEP
88000
ITEM: NUMBER OF ATOMS
43
ITEM: BOX BOUNDS pp pp pp
0 360
0 360
0 360
ITEM: ATOMS id type x y z
698450 1 147.75 180.75 144.75
841245 1 132.75 150.75 174.75
956097 1 168.75 141.75 198.75
956216 1 165.75 144.75 198.75
956217 1 168.75 144.75 198.75
956337 1 168.75 147.75 198.75
970737 1 168.75 147.75 201.75
970858 1 171.75 150.75 201.75
971099 1 174.75 156.75 201.75
985258 1 171.75 150.75 204.75
985378 1 171.75 153.75 204.75
985379 1 174.75 153.75 204.75
985498 1 171.75 156.75 204.75
985740 1 177.75 162.75 204.75
1055572 1 153.75 108.75 219.75
1055693 1 156.75 111.75 219.75
1130946 1 195.75 192.75 234.75
1157918 1 111.75 147.75 240.75
1203397 1 108.75 204.75 249.75
1230411 1 150.75 159.75 255.75
2353964 1 131.25 170.25 131.25
2511296 1 167.25 143.25 164.25
2540824 1 191.25 161.25 170.25
2554750 1 209.25 149.25 173.25
2599254 1 161.25 182.25 182.25
2627697 1 170.25 173.25 188.25
2669817 1 170.25 146.25 197.25
2684216 1 167.25 146.25 200.25
2684337 1 170.25 149.25 200.25
2684578 1 173.25 155.25 200.25
2698737 1 170.25 149.25 203.25
2698858 1 173.25 152.25 203.25
2699340 1 179.25 164.25 203.25
2754652 1 155.25 107.25 215.25
2769172 1 155.25 110.25 218.25
2829900 1 179.25 188.25 230.25
2844301 1 182.25 188.25 233.25
2858946 1 197.25 194.25 236.25
2901292 1 155.25 173.25 245.25
2901537 1 170.25 179.25 245.25
2929490 1 149.25 158.25 251.25
2944010 1 149.25 161.25 254.25
2975691 1 152.25 233.25 260.25
