ITEM: TIMESTEP
88608
ITEM: NUMBER OF ATOMS
84
ITEM: BOX BOUNDS pp pp pp
0 360
0 360
0 360
ITEM: ATOMS id type x y z
725810 1 147.75 144.75 150.75
726532 1 153.75 162.75 150.75
755333 1 156.75 162.75 156.75
783772 1 153.75 153.75 162.75
812454 1 159.75 150.75 168.75
828175 1 162.75 183.75 171.75
872458 1 171.75 210.75 180.75
883850 1 147.75 135.75 183.75
913730 1 147.75 162.75 189.75
916132 1 153.75 222.75 189.75
926809 1 144.75 129.75 192.75
957888 1 141.75 186.75 198.75
958008 1 141.75 189.75 198.75
958016 1 165.75 189.75 198.75
973016 1 165.75 204.75 201.75
975176 1 165.75 258.75 201.75
986565 1 132.75 183.75 204.75
986809 1 144.75 189.75 204.75
999050 1 147.75 135.75 207.75
1002172 1 153.75 213.75 207.75
1115345 1 192.75 162.75 231.75
1130223 1 186.75 174.75 234.75
1130581 1 180.75 183.75 234.75
1144378 1 171.75 168.75 237.75
1144381 1 180.75 168.75 237.75
1144623 1 186.75 174.75 237.75
1172113 1 216.75 141.75 243.75
1172697 1 168.75 156.75 243.75
1172933 1 156.75 162.75 243.75
1186862 1 183.75 150.75 246.75
1201618 1 171.75 159.75 249.75
1201620 1 177.75 159.75 249.75
1201738 1 171.75 162.75 249.75
1201740 1 177.75 162.75 249.75
1201852 1 153.75 165.75 249.75
1202219 1 174.75 174.75 249.75
1202222 1 183.75 174.75 249.75
1216018 1 171.75 159.75 252.75
1216021 1 180.75 159.75 252.75
1216264 1 189.75 165.75 252.75
1230535 1 162.75 162.75 255.75
1244940 1 177.75 162.75 258.75
1245310 1 207.75 171.75 258.75
1259217 1 168.75 159.75 261.75
1346589 1 204.75 183.75 279.75
2468451 1 152.25 152.25 155.25
2557135 1 164.25 209.25 173.25
2557622 1 185.25 221.25 173.25
2585818 1 173.25 206.25 179.25
2597328 1 143.25 134.25 182.25
2600933 1 158.25 224.25 182.25
2613172 1 155.25 170.25 185.25
2613534 1 161.25 179.25 185.25
2643898 1 173.25 218.25 191.25
2658771 1 152.25 230.25 194.25
2669086 1 137.25 128.25 197.25
2669087 1 140.25 128.25 197.25
2669568 1 143.25 140.25 197.25
2683732 1 155.25 134.25 200.25
2701856 1 167.25 227.25 203.25
2730173 1 158.25 215.25 209.25
2770613 1 158.25 146.25 218.25
2813689 1 146.25 143.25 227.25
2814300 1 179.25 158.25 227.25
2843342 1 185.25 164.25 233.25
2900097 1 170.25 143.25 245.25
2900819 1 176.25 161.25 245.25
2900939 1 176.25 164.25 245.25
2914976 1 167.25 155.25 248.25
2915702 1 185.25 173.25 248.25
2929136 1 167.25 149.25 251.25
2929615 1 164.25 161.25 251.25
2929623 1 188.25 161.25 251.25
2929985 1 194.25 170.25 251.25
2944017 1 170.25 161.25 254.25
2944019 1 176.25 161.25 254.25
2944020 1 179.25 161.25 254.25
2944622 1 185.25 176.25 254.25
2958294 1 161.25 158.25 257.25
2958420 1 179.25 161.25 257.25
2958779 1 176.25 170.25 257.25
2985901 1 182.25 128.25 263.25
2987218 1 173.25 161.25 263.25
3060189 1 206.25 185.25 278.25
