ITEM: TIMESTEP
96000
ITEM: NUMBER OF ATOMS
69
ITEM: BOX BOUNDS pp pp pp
0 360
0 360
0 360
ITEM: ATOMS id type x y z
654666 1 195.75 165.75 135.75
783901 1 180.75 156.75 162.75
798181 1 180.75 153.75 165.75
884336 1 165.75 147.75 183.75
884456 1 165.75 150.75 183.75
884457 1 168.75 150.75 183.75
884475 1 222.75 150.75 183.75
884823 1 186.75 159.75 183.75
898857 1 168.75 150.75 186.75
898863 1 186.75 150.75 186.75
1028229 1 204.75 144.75 213.75
1028348 1 201.75 147.75 213.75
1057140 1 177.75 147.75 219.75
1071539 1 174.75 147.75 222.75
1071540 1 177.75 147.75 222.75
1071541 1 180.75 147.75 222.75
1071660 1 177.75 150.75 222.75
1086061 1 180.75 150.75 225.75
1114499 1 174.75 141.75 231.75
1115230 1 207.75 159.75 231.75
1186145 1 192.75 132.75 246.75
1200545 1 192.75 132.75 249.75
1200666 1 195.75 135.75 249.75
1214826 1 195.75 129.75 252.75
1214946 1 195.75 132.75 252.75
1214947 1 198.75 132.75 252.75
1229226 1 195.75 129.75 255.75
1229347 1 198.75 132.75 255.75
1243749 1 204.75 132.75 258.75
1258391 1 210.75 138.75 261.75
1272553 1 216.75 132.75 264.75
1272672 1 213.75 135.75 264.75
1272791 1 210.75 138.75 264.75
1375515 1 222.75 186.75 285.75
1429273 1 216.75 90.75 297.75
2496650 1 149.25 137.25 161.25
2497261 1 182.25 152.25 161.25
2511662 1 185.25 152.25 164.25
2526060 1 179.25 152.25 167.25
2597935 1 164.25 149.25 182.25
2598056 1 167.25 152.25 182.25
2612336 1 167.25 149.25 185.25
2612342 1 185.25 149.25 185.25
2740267 1 200.25 107.25 212.25
2742672 1 215.25 167.25 212.25
2799420 1 179.25 146.25 224.25
2813700 1 179.25 143.25 227.25
2813819 1 176.25 146.25 227.25
2827980 1 179.25 140.25 230.25
2828099 1 176.25 143.25 230.25
2842379 1 176.25 140.25 233.25
2843110 1 209.25 158.25 233.25
2914024 1 191.25 131.25 248.25
2914145 1 194.25 134.25 248.25
2914967 1 140.25 155.25 248.25
2928425 1 194.25 131.25 251.25
2928545 1 194.25 134.25 251.25
2928546 1 197.25 134.25 251.25
2942695 1 164.25 128.25 254.25
2942816 1 167.25 131.25 254.25
2942826 1 197.25 131.25 254.25
2942947 1 200.25 134.25 254.25
2942948 1 203.25 134.25 254.25
2943067 1 200.25 137.25 254.25
2957347 1 200.25 134.25 257.25
2986391 1 212.25 140.25 263.25
3217762 1 245.25 164.25 311.25
3244515 1 224.25 113.25 317.25
3404011 1 272.25 140.25 350.25
