ITEM: TIMESTEP
90000
ITEM: NUMBER OF ATOMS
77
ITEM: BOX BOUNDS pp pp pp
0 360
0 360
0 360
ITEM: ATOMS id type x y z
641211 1 150.75 189.75 132.75
656206 1 135.75 204.75 135.75
697009 1 144.75 144.75 144.75
698696 1 165.75 186.75 144.75
699174 1 159.75 198.75 144.75
699291 1 150.75 201.75 144.75
716121 1 240.75 261.75 147.75
726413 1 156.75 159.75 150.75
726533 1 156.75 162.75 150.75
741295 1 162.75 171.75 153.75
741534 1 159.75 177.75 153.75
745160 1 237.75 267.75 153.75
759677 1 228.75 270.75 156.75
759799 1 234.75 273.75 156.75
759916 1 225.75 276.75 156.75
759917 1 228.75 276.75 156.75
759920 1 237.75 276.75 156.75
760039 1 234.75 279.75 156.75
760758 1 231.75 297.75 156.75
773958 1 231.75 267.75 159.75
774433 1 216.75 279.75 159.75
788718 1 231.75 276.75 162.75
788719 1 234.75 276.75 162.75
814971 1 150.75 213.75 168.75
817399 1 234.75 273.75 168.75
817517 1 228.75 276.75 168.75
831919 1 234.75 276.75 171.75
843410 1 147.75 204.75 174.75
846077 1 228.75 270.75 174.75
859982 1 183.75 258.75 177.75
915411 1 150.75 204.75 189.75
916985 1 192.75 243.75 189.75
931136 1 165.75 237.75 192.75
931283 1 246.75 240.75 192.75
931501 1 180.75 246.75 192.75
944093 1 156.75 201.75 195.75
960543 1 186.75 252.75 198.75
974945 1 192.75 252.75 201.75
987415 1 162.75 204.75 204.75
1015975 1 162.75 198.75 210.75
1015977 1 168.75 198.75 210.75
2282931 1 152.25 194.25 116.25
2297093 1 158.25 188.25 119.25
2297331 1 152.25 194.25 119.25
2383977 1 170.25 200.25 137.25
2411936 1 167.25 179.25 143.25
2415438 1 233.25 266.25 143.25
2425250 1 149.25 152.25 146.25
2426212 1 155.25 176.25 146.25
2430681 1 242.25 287.25 146.25
2444237 1 230.25 266.25 149.25
2444599 1 236.25 275.25 149.25
2454172 1 155.25 155.25 152.25
2458999 1 236.25 275.25 152.25
2468933 1 158.25 164.25 155.25
2472914 1 221.25 263.25 155.25
2473158 1 233.25 269.25 155.25
2473518 1 233.25 278.25 155.25
2484897 1 170.25 203.25 158.25
2487317 1 230.25 263.25 158.25
2487918 1 233.25 278.25 158.25
2516718 1 233.25 278.25 164.25
2516841 1 242.25 281.25 164.25
2531118 1 233.25 278.25 167.25
2556890 1 149.25 203.25 173.25
2559558 1 233.25 269.25 173.25
2559559 1 236.25 269.25 173.25
2559917 1 230.25 278.25 173.25
2614013 1 158.25 191.25 185.25
2629487 1 140.25 218.25 188.25
2630937 1 170.25 254.25 188.25
2631062 1 185.25 257.25 188.25
2644852 1 155.25 242.25 191.25
2645337 1 170.25 254.25 191.25
2671621 1 182.25 191.25 197.25
2690235 1 224.25 296.25 200.25
2733321 1 242.25 293.25 209.25
