ITEM: TIMESTEP
89000
ITEM: NUMBER OF ATOMS
51
ITEM: BOX BOUNDS pp pp pp
0 360
0 360
0 360
ITEM: ATOMS id type x y z
629694 1 159.75 261.75 129.75
643492 1 153.75 246.75 132.75
658132 1 153.75 252.75 135.75
658727 1 138.75 267.75 135.75
673012 1 153.75 264.75 138.75
684299 1 174.75 186.75 141.75
699653 1 156.75 210.75 144.75
712616 1 165.75 174.75 147.75
715962 1 123.75 258.75 147.75
742971 1 150.75 213.75 153.75
770223 1 186.75 174.75 159.75
784740 1 177.75 177.75 162.75
785329 1 144.75 192.75 162.75
798417 1 168.75 159.75 165.75
814026 1 195.75 189.75 168.75
814134 1 159.75 192.75 168.75
827575 1 162.75 168.75 171.75
842214 1 159.75 174.75 174.75
856623 1 186.75 174.75 177.75
857089 1 144.75 186.75 177.75
857106 1 195.75 186.75 177.75
857468 1 201.75 195.75 177.75
871020 1 177.75 174.75 180.75
884936 1 165.75 162.75 183.75
886628 1 201.75 204.75 183.75
914220 1 177.75 174.75 189.75
2370891 1 152.25 233.25 134.25
2382533 1 158.25 164.25 137.25
2397657 1 170.25 182.25 140.25
2400650 1 149.25 257.25 140.25
2415291 1 152.25 263.25 143.25
2429691 1 152.25 263.25 146.25
2440495 1 164.25 173.25 149.25
2483689 1 146.25 173.25 158.25
2486448 1 143.25 242.25 158.25
2527142 1 185.25 179.25 167.25
2527381 1 182.25 185.25 167.25
2541181 1 182.25 170.25 170.25
2542270 1 209.25 197.25 170.25
2542368 1 143.25 200.25 170.25
2555940 1 179.25 179.25 173.25
2570579 1 176.25 185.25 176.25
2585102 1 185.25 188.25 179.25
2598781 1 182.25 170.25 182.25
2599257 1 170.25 182.25 182.25
2626980 1 179.25 155.25 188.25
2627700 1 179.25 173.25 188.25
2642461 1 182.25 182.25 191.25
2655419 1 176.25 146.25 194.25
2656503 1 188.25 173.25 194.25
2657701 1 182.25 203.25 194.25
