ITEM: TIMESTEP
88000
ITEM: NUMBER OF ATOMS
68
ITEM: BOX BOUNDS pp pp pp
0 360
0 360
0 360
ITEM: ATOMS id type x y z
726406 1 135.75 159.75 150.75
727013 1 156.75 174.75 150.75
740925 1 132.75 162.75 153.75
755327 1 138.75 162.75 156.75
783046 1 135.75 135.75 162.75
784495 1 162.75 171.75 162.75
784616 1 165.75 174.75 162.75
798895 1 162.75 171.75 165.75
813773 1 156.75 183.75 168.75
813894 1 159.75 186.75 168.75
816309 1 204.75 246.75 168.75
829986 1 195.75 228.75 171.75
844627 1 198.75 234.75 174.75
858784 1 189.75 228.75 177.75
872821 1 180.75 219.75 180.75
872823 1 186.75 219.75 180.75
872942 1 183.75 222.75 180.75
872943 1 186.75 222.75 180.75
873184 1 189.75 228.75 180.75
972288 1 141.75 186.75 201.75
985587 1 78.75 159.75 204.75
1000106 1 75.75 162.75 207.75
1014507 1 78.75 162.75 210.75
1044041 1 120.75 180.75 216.75
1044642 1 123.75 195.75 216.75
1144601 1 120.75 174.75 237.75
1157916 1 105.75 147.75 240.75
2383612 1 155.25 191.25 137.25
2384943 1 188.25 224.25 137.25
2396219 1 176.25 146.25 140.25
2398132 1 155.25 194.25 140.25
2398151 1 212.25 194.25 140.25
2453210 1 149.25 131.25 152.25
2454405 1 134.25 161.25 152.25
2454525 1 134.25 164.25 152.25
2498094 1 161.25 173.25 161.25
2512493 1 158.25 173.25 164.25
2512614 1 161.25 176.25 164.25
2527615 1 164.25 191.25 167.25
2558106 1 197.25 233.25 173.25
2569753 1 218.25 164.25 176.25
2572384 1 191.25 230.25 176.25
2572385 1 194.25 230.25 176.25
2572505 1 194.25 233.25 176.25
2572506 1 197.25 233.25 176.25
2586421 1 182.25 221.25 179.25
2586542 1 185.25 224.25 179.25
2586543 1 188.25 224.25 179.25
2586663 1 188.25 227.25 179.25
2586784 1 191.25 230.25 179.25
2586786 1 197.25 230.25 179.25
2586905 1 194.25 233.25 179.25
2600702 1 185.25 218.25 182.25
2600821 1 182.25 221.25 182.25
2613518 1 113.25 179.25 185.25
2655160 1 119.25 140.25 194.25
2671486 1 137.25 188.25 197.25
2700416 1 167.25 191.25 203.25
2714817 1 170.25 191.25 206.25
2728107 1 80.25 164.25 209.25
2757523 1 128.25 179.25 215.25
2757641 1 122.25 182.25 215.25
2757760 1 119.25 185.25 215.25
2771924 1 131.25 179.25 218.25
2772040 1 119.25 182.25 218.25
2772160 1 119.25 185.25 218.25
2772161 1 122.25 185.25 218.25
2872481 1 122.25 173.25 239.25
