ITEM: TIMESTEP
97195
ITEM: NUMBER OF ATOMS
81
ITEM: BOX BOUNDS pp pp pp
0 360
0 360
0 360
ITEM: ATOMS id type x y z
638090 1 147.75 111.75 132.75
682010 1 147.75 129.75 141.75
725815 1 162.75 144.75 150.75
740093 1 156.75 141.75 153.75
768894 1 159.75 141.75 159.75
827336 1 165.75 162.75 171.75
839816 1 165.75 114.75 174.75
840533 1 156.75 132.75 174.75
841736 1 165.75 162.75 174.75
899819 1 174.75 174.75 186.75
928502 1 183.75 171.75 192.75
957423 1 186.75 174.75 198.75
972423 1 186.75 189.75 201.75
1161071 1 210.75 225.75 240.75
1175113 1 216.75 216.75 243.75
1176319 1 234.75 246.75 243.75
1190721 1 240.75 246.75 246.75
1203913 1 216.75 216.75 249.75
1218918 1 231.75 231.75 252.75
1233679 1 234.75 240.75 255.75
1263811 1 270.75 273.75 261.75
1277001 1 240.75 243.75 264.75
1291998 1 231.75 258.75 267.75
1320207 1 258.75 243.75 273.75
1335700 1 297.75 270.75 276.75
1348408 1 261.75 228.75 279.75
1348641 1 240.75 234.75 279.75
1362682 1 243.75 225.75 282.75
1362802 1 243.75 228.75 282.75
1364235 1 222.75 264.75 282.75
1379137 1 288.75 276.75 285.75
1393656 1 285.75 279.75 288.75
1479938 1 291.75 276.75 306.75
1537184 1 309.75 267.75 318.75
2453456 1 167.25 137.25 152.25
2454410 1 149.25 161.25 152.25
2467971 1 152.25 140.25 155.25
2467973 1 158.25 140.25 155.25
2467974 1 161.25 140.25 155.25
2468692 1 155.25 158.25 155.25
2469049 1 146.25 167.25 155.25
2510934 1 161.25 134.25 164.25
2511175 1 164.25 140.25 164.25
2524853 1 158.25 122.25 167.25
2553774 1 161.25 125.25 173.25
2642223 1 188.25 176.25 191.25
2656622 1 185.25 176.25 194.25
2656623 1 188.25 176.25 194.25
2700302 1 185.25 188.25 203.25
2888590 1 209.25 215.25 242.25
2889560 1 239.25 239.25 242.25
2917392 1 215.25 215.25 248.25
2933237 1 230.25 251.25 251.25
2962042 1 245.25 251.25 257.25
2975483 1 248.25 227.25 260.25
2976322 1 245.25 248.25 260.25
3005478 1 233.25 257.25 266.25
3018079 1 236.25 212.25 269.25
3019045 1 254.25 236.25 269.25
3019644 1 251.25 251.25 269.25
3020971 1 272.25 284.25 269.25
3033084 1 251.25 227.25 272.25
3033681 1 242.25 242.25 272.25
3046757 1 230.25 209.25 275.25
3048326 1 257.25 248.25 275.25
3062366 1 257.25 239.25 278.25
3074716 1 227.25 188.25 281.25
3078212 1 275.25 275.25 281.25
3078334 1 281.25 278.25 281.25
3089238 1 233.25 191.25 284.25
3091042 1 245.25 236.25 284.25
3105205 1 254.25 230.25 287.25
3105321 1 242.25 233.25 287.25
3119721 1 242.25 233.25 290.25
3132677 1 230.25 197.25 293.25
3133521 1 242.25 218.25 293.25
3147924 1 251.25 218.25 296.25
3162933 1 278.25 233.25 299.25
3193058 1 293.25 266.25 305.25
3193177 1 290.25 269.25 305.25
3236857 1 290.25 281.25 314.25
