ITEM: TIMESTEP
106535
ITEM: NUMBER OF ATOMS
76
ITEM: BOX BOUNDS pp pp pp
0 360
0 360
0 360
ITEM: ATOMS id type x y z
495658 1 171.75 150.75 102.75
524455 1 162.75 150.75 108.75
538499 1 174.75 141.75 111.75
553373 1 156.75 153.75 114.75
567783 1 186.75 153.75 117.75
582181 1 180.75 153.75 120.75
611459 1 174.75 165.75 126.75
639053 1 156.75 135.75 132.75
667735 1 162.75 132.75 138.75
754508 1 201.75 141.75 156.75
768907 1 198.75 141.75 159.75
782705 1 192.75 126.75 162.75
782944 1 189.75 132.75 162.75
783064 1 189.75 135.75 162.75
783314 1 219.75 141.75 162.75
783315 1 222.75 141.75 162.75
783432 1 213.75 144.75 162.75
796741 1 180.75 117.75 165.75
812348 1 201.75 147.75 168.75
970152 1 213.75 132.75 201.75
984085 1 252.75 120.75 204.75
999558 1 231.75 147.75 207.75
1013362 1 243.75 132.75 210.75
1028122 1 243.75 141.75 213.75
1085725 1 252.75 141.75 225.75
1085964 1 249.75 147.75 225.75
1085965 1 252.75 147.75 225.75
1099510 1 207.75 126.75 228.75
1114764 1 249.75 147.75 231.75
1129284 1 249.75 150.75 234.75
1187251 1 270.75 159.75 246.75
1230210 1 267.75 153.75 255.75
1374100 1 297.75 150.75 285.75
1431703 1 306.75 150.75 297.75
1446105 1 312.75 150.75 300.75
1590230 1 327.75 153.75 330.75
1619052 1 33.75 156.75 336.75
1634279 1 354.75 174.75 339.75
1648087 1 18.75 162.75 342.75
1648198 1 351.75 162.75 342.75
1648319 1 354.75 165.75 342.75
1662360 1 357.75 156.75 345.75
1676650 1 27.75 156.75 348.75
1677120 1 357.75 165.75 348.75
1677600 1 357.75 177.75 348.75
2267217 1 170.25 161.25 113.25
2281132 1 155.25 149.25 116.25
2310053 1 158.25 152.25 122.25
2324212 1 155.25 146.25 125.25
2324213 1 158.25 146.25 125.25
2453579 1 176.25 140.25 152.25
2467746 1 197.25 134.25 155.25
2497030 1 209.25 146.25 161.25
2511194 1 221.25 140.25 164.25
2511312 1 215.25 143.25 164.25
2524863 1 188.25 122.25 167.25
2525103 1 188.25 128.25 167.25
2539139 1 176.25 119.25 170.25
2784565 1 254.25 134.25 221.25
2784804 1 251.25 140.25 221.25
2784805 1 254.25 140.25 221.25
2813603 1 248.25 140.25 227.25
2987128 1 263.25 158.25 263.25
3030451 1 272.25 161.25 272.25
3044497 1 290.25 152.25 275.25
3101978 1 293.25 149.25 287.25
3173980 1 299.25 149.25 302.25
3188505 1 314.25 152.25 305.25
3346916 1 347.25 152.25 338.25
3347878 1 353.25 176.25 338.25
3362035 1 344.25 170.25 341.25
3375839 1 356.25 155.25 344.25
3376207 1 20.25 167.25 344.25
3404409 1 26.25 152.25 350.25
3405236 1 347.25 170.25 350.25
3433438 1 353.25 155.25 356.25
