ITEM: TIMESTEP
106000
ITEM: NUMBER OF ATOMS
73
ITEM: BOX BOUNDS pp pp pp
0 360
0 360
0 360
ITEM: ATOMS id type x y z c_myKE c_myPE
493376 1 162.521 87.613 98.5916 0.10845 -6.70523
510162 1 118.018 151.695 100.487 0.0158332 -6.27374
2310174 1 162.203 154.753 113.132 0.170746 -6.75663
2309220 1 180.053 127.206 117.607 0.217685 -6.82398
2309339 1 176.939 130.423 117.499 0.117374 -7.54547
2481922 1 247.195 124.129 156.151 0.0777339 -5.67944
2554970 1 146.123 152.794 173.874 0.276914 -6.37196
2582589 1 208.879 122.73 178.134 0.286764 -6.48601
2568548 1 203.665 130.516 176.709 0.345244 -6.22174
2640789 1 207.057 135.42 192.891 0.137159 -7.00103
927190 1 212.478 135.102 192.648 0.113578 -7.34522
2697567 1 266.705 116.481 203.546 0.146144 -6.22063
2712793 1 221.84 136.732 208.692 0.14123 -6.24661
2727569 1 271.067 148.346 210.223 0.00483532 -6.49342
2769672 1 216.508 116.964 222.99 0.359973 -6.86592
1069760 1 242.034 95.2787 226.373 0.0785608 -6.34207
3002025 1 321.79 170.407 270.651 0.0806396 -6.59309
3173980 1 305.685 148.793 309.084 0.243395 -7.19822
1460500 1 305.78 146.783 310.93 0.0701406 -7.10481
3232316 1 356.585 167.544 321.807 0.0994198 -7.29315
3231955 1 355.535 158.218 323.432 0.0573142 -6.66003
3246596 1 356.584 164.043 324.722 0.159607 -6.97736
3246717 1 359.97 167.369 324.733 0.103383 -6.59571
3319916 1 356.639 196.919 339.673 0.268945 -6.85566
3332416 1 42.8327 151.179 342.9 0.290558 -6.0019
3334315 1 353.636 196.96 342.891 0.0421653 -7.35331
3331785 1 321.859 130.228 345.809 0.279292 -6.17608
3346810 1 20.6568 151.636 347.311 0.20935 -6.35711
3361330 1 23.6916 154.515 347.446 0.419928 -7.38539
3347151 1 344.09 152.711 352.489 0.123312 -6.55471
424256 1 165.741 163.799 81.0236 0.237808 -6.09176
537179 1 173.691 103.445 108.524 0.151962 -7.00156
581341 1 181.595 128.785 116.164 0.255743 -7.24514
2295060 1 178.355 132.108 115.873 0.35358 -7.53328
2324938 1 174.975 163.954 121.943 0.254689 -7.39543
2324937 1 173.041 164.187 123.766 0.148437 -6.3996
2325059 1 175.15 162.78 124.475 0.0507506 -7.15286
640856 1 163.656 180.191 130.525 0.0579649 -6.60189
640977 1 167.158 183.13 130.573 0.0484318 -7.40318
696803 1 252.076 137.513 141.433 0.016562 -6.57989
2468338 1 172.004 146.552 150.937 0.0251601 -6.54141
2468458 1 175.479 149.447 151.027 0.168636 -6.92242
854590 1 210.607 121.158 176.416 0.463815 -7.07032
855070 1 207.445 133.607 176.698 0.112787 -6.30442
856031 1 211.749 159.467 175.158 0.0683296 -6.16683
912549 1 207.117 133.524 188.706 0.162295 -7.32114
912790 1 210.519 135.056 190.872 0.141682 -7.68172
956949 1 207.848 163.972 199.137 0.210695 -7.39559
954909 1 205.74 108.473 200.736 0.198942 -6.45734
1012163 1 252.247 96.8139 213.445 0.132326 -6.26724
1042399 1 237.356 129.068 214.958 0.150762 -6.24464
2755878 1 237.329 131.984 218.367 0.202894 -7.54682
2742550 1 210.294 163.804 216.781 0.507185 -6.44284
1043470 1 208.415 165.737 218.073 0.320341 -7.51401
2799199 1 237.02 135.357 221.492 0.247649 -6.78826
1057750 1 208.21 162.891 221.282 0.228732 -7.0184
1057870 1 208.547 165.856 221.327 0.141049 -7.12221
1072271 1 211.435 165.823 224.449 0.207624 -6.22812
1072533 1 283.843 172.345 226.442 0.0284948 -6.36118
1201072 1 344.726 143.261 253.503 0.208041 -6.00582
1187377 1 294.613 162.691 251.73 0.168159 -6.47843
1244365 1 258.309 147.079 264.9 0.0587757 -6.7933
1386351 1 341.07 90.5538 296.526 0.33815 -7.05752
1416201 1 243.595 119.411 303.014 0.138982 -6.46516
1430981 1 309.205 130.777 306.232 0.336571 -6.08632
1474762 1 246.573 145.34 315.772 0.21734 -6.28817
1518835 1 352.085 168.957 323.508 0.155952 -6.51174
3245993 1 348.519 150.115 326.304 0.117687 -6.23926
1605106 1 322.094 163.993 341.219 0.425285 -6.34087
1605248 1 9.63056 171.976 342.526 0.018394 -6.22887
1619052 1 25.7703 154.596 345.914 0.00703132 -7.31538
1633188 1 331.831 144.689 351.169 0.108819 -6.98039
3390353 1 349.1 154.314 357.392 0.127846 -5.53401
