ITEM: TIMESTEP
88636
ITEM: NUMBER OF ATOMS
89
ITEM: BOX BOUNDS pp pp pp
0 360
0 360
0 360
ITEM: ATOMS id type x y z
583840 1 117.75 195.75 120.75
595493 1 156.75 126.75 123.75
595494 1 159.75 126.75 123.75
597524 1 129.75 177.75 123.75
611115 1 222.75 156.75 126.75
623918 1 111.75 117.75 129.75
681413 1 156.75 114.75 141.75
739503 1 186.75 126.75 153.75
739742 1 183.75 132.75 153.75
754023 1 186.75 129.75 156.75
754142 1 183.75 132.75 156.75
754143 1 186.75 132.75 156.75
754262 1 183.75 135.75 156.75
768304 1 189.75 126.75 159.75
768424 1 189.75 129.75 159.75
768543 1 186.75 132.75 159.75
768663 1 186.75 135.75 159.75
768782 1 183.75 138.75 159.75
768902 1 183.75 141.75 159.75
769123 1 126.75 147.75 159.75
782824 1 189.75 129.75 162.75
782825 1 192.75 129.75 162.75
782944 1 189.75 132.75 162.75
783063 1 186.75 135.75 162.75
783182 1 183.75 138.75 162.75
783183 1 186.75 138.75 162.75
797105 1 192.75 126.75 165.75
797225 1 192.75 129.75 165.75
797344 1 189.75 132.75 165.75
797464 1 189.75 135.75 165.75
797583 1 186.75 138.75 165.75
797703 1 186.75 141.75 165.75
811745 1 192.75 132.75 168.75
811864 1 189.75 135.75 168.75
811865 1 192.75 135.75 168.75
811984 1 189.75 138.75 168.75
825172 1 153.75 108.75 171.75
825293 1 156.75 111.75 171.75
826145 1 192.75 132.75 171.75
826384 1 189.75 138.75 171.75
826504 1 189.75 141.75 171.75
839573 1 156.75 108.75 174.75
839692 1 153.75 111.75 174.75
839694 1 159.75 111.75 174.75
1025218 1 171.75 69.75 213.75
1039497 1 168.75 66.75 216.75
1039617 1 168.75 69.75 216.75
2181769 1 146.25 185.25 95.25
2309093 1 158.25 128.25 122.25
2324595 1 224.25 155.25 125.25
2324715 1 224.25 158.25 125.25
2351706 1 197.25 113.25 131.25
2366226 1 197.25 116.25 134.25
2380012 1 155.25 101.25 137.25
2453222 1 185.25 131.25 152.25
2467502 1 185.25 128.25 155.25
2467503 1 188.25 128.25 155.25
2467622 1 185.25 131.25 155.25
2467741 1 182.25 134.25 155.25
2481783 1 188.25 125.25 158.25
2481903 1 188.25 128.25 158.25
2482023 1 188.25 131.25 158.25
2482142 1 185.25 134.25 158.25
2482261 1 182.25 137.25 158.25
2482262 1 185.25 137.25 158.25
2482975 1 164.25 155.25 158.25
2495919 1 116.25 119.25 161.25
2496304 1 191.25 128.25 161.25
2496423 1 188.25 131.25 161.25
2496543 1 188.25 134.25 161.25
2496662 1 185.25 137.25 161.25
2509126 1 137.25 89.25 164.25
2510824 1 191.25 131.25 164.25
2510943 1 188.25 134.25 164.25
2511063 1 188.25 137.25 164.25
2511182 1 185.25 140.25 164.25
2523778 1 173.25 95.25 167.25
2525224 1 191.25 131.25 167.25
2525344 1 191.25 134.25 167.25
2525463 1 188.25 137.25 167.25
2525583 1 188.25 140.25 167.25
2525703 1 188.25 143.25 167.25
2538772 1 155.25 110.25 170.25
2539505 1 194.25 128.25 170.25
2539864 1 191.25 137.25 170.25
2539983 1 188.25 140.25 170.25
2569390 1 209.25 155.25 176.25
2680853 1 158.25 62.25 200.25
2767497 1 170.25 68.25 218.25
