ITEM: TIMESTEP
94000
ITEM: NUMBER OF ATOMS
82
ITEM: BOX BOUNDS pp pp pp
0 360
0 360
0 360
ITEM: ATOMS id type x y z
454188 1 321.75 192.75 93.75
469191 1 330.75 207.75 96.75
498229 1 324.75 213.75 102.75
512271 1 330.75 204.75 105.75
525469 1 324.75 174.75 108.75
540590 1 327.75 192.75 111.75
540713 1 336.75 195.75 111.75
540949 1 324.75 201.75 111.75
541311 1 330.75 210.75 111.75
541549 1 324.75 216.75 111.75
597459 1 294.75 174.75 123.75
598789 1 324.75 207.75 123.75
614268 1 321.75 234.75 126.75
681775 1 162.75 123.75 141.75
696533 1 156.75 132.75 144.75
712748 1 201.75 177.75 147.75
712866 1 195.75 180.75 147.75
726666 1 195.75 165.75 150.75
727266 1 195.75 180.75 150.75
727769 1 264.75 192.75 150.75
727890 1 267.75 195.75 150.75
741789 1 204.75 183.75 153.75
742523 1 246.75 201.75 153.75
756063 1 186.75 180.75 156.75
756425 1 192.75 189.75 156.75
756681 1 240.75 195.75 156.75
770948 1 201.75 192.75 159.75
771085 1 252.75 195.75 159.75
798182 1 183.75 153.75 165.75
799889 1 264.75 195.75 165.75
828427 1 198.75 189.75 171.75
987689 1 264.75 210.75 204.75
987693 1 276.75 210.75 204.75
1016610 1 267.75 213.75 210.75
1016732 1 273.75 216.75 210.75
1030771 1 270.75 207.75 213.75
1031132 1 273.75 216.75 213.75
2153871 1 332.25 206.25 89.25
2183028 1 323.25 215.25 95.25
2225749 1 326.25 203.25 104.25
2225872 1 335.25 206.25 104.25
2240272 1 335.25 206.25 107.25
2240386 1 317.25 209.25 107.25
2240389 1 326.25 209.25 107.25
2254550 1 329.25 203.25 110.25
2254794 1 341.25 209.25 110.25
2269311 1 332.25 212.25 113.25
2269431 1 332.25 215.25 113.25
2269788 1 323.25 224.25 113.25
2283714 1 341.25 212.25 116.25
2327633 1 338.25 230.25 125.25
2355090 1 269.25 197.25 131.25
2355809 1 266.25 215.25 131.25
2367892 1 155.25 158.25 134.25
2383025 1 194.25 176.25 137.25
2396947 1 200.25 164.25 140.25
2398171 1 272.25 194.25 140.25
2409895 1 164.25 128.25 143.25
2411948 1 203.25 179.25 143.25
2424773 1 158.25 140.25 146.25
2424892 1 155.25 143.25 146.25
2425622 1 185.25 161.25 146.25
2427090 1 269.25 197.25 146.25
2440866 1 197.25 182.25 149.25
2441107 1 200.25 188.25 149.25
2455504 1 191.25 188.25 152.25
2468692 1 155.25 158.25 155.25
2470175 1 284.25 194.25 155.25
2470287 1 260.25 197.25 155.25
2470524 1 251.25 203.25 155.25
2484426 1 197.25 191.25 158.25
2484546 1 197.25 194.25 158.25
2484681 1 242.25 197.25 158.25
2499087 1 260.25 197.25 161.25
2512855 1 164.25 182.25 164.25
2513460 1 179.25 197.25 164.25
2513487 1 260.25 197.25 164.25
2527885 1 254.25 197.25 167.25
2554620 1 179.25 146.25 173.25
2614647 1 260.25 206.25 185.25
2729969 1 266.25 209.25 209.25
2758771 1 272.25 209.25 215.25
