ITEM: TIMESTEP
89000
ITEM: NUMBER OF ATOMS
91
ITEM: BOX BOUNDS pp pp pp
0 360
0 360
0 360
ITEM: ATOMS id type x y z
740925 1 132.75 162.75 153.75
741427 1 198.75 174.75 153.75
741428 1 201.75 174.75 153.75
741663 1 186.75 180.75 153.75
741769 1 144.75 183.75 153.75
741908 1 201.75 186.75 153.75
742749 1 204.75 207.75 153.75
743234 1 219.75 219.75 153.75
756067 1 198.75 180.75 156.75
757265 1 192.75 210.75 156.75
757612 1 153.75 219.75 156.75
770588 1 201.75 183.75 159.75
770712 1 213.75 186.75 159.75
770831 1 210.75 189.75 159.75
770949 1 204.75 192.75 159.75
770951 1 210.75 192.75 159.75
771069 1 204.75 195.75 159.75
771189 1 204.75 198.75 159.75
771790 1 207.75 213.75 159.75
784744 1 189.75 177.75 162.75
798770 1 147.75 168.75 165.75
799625 1 192.75 189.75 165.75
799748 1 201.75 192.75 165.75
799986 1 195.75 198.75 165.75
801072 1 213.75 225.75 165.75
813540 1 177.75 177.75 168.75
814149 1 204.75 192.75 168.75
814970 1 147.75 213.75 168.75
814991 1 210.75 213.75 168.75
827822 1 183.75 174.75 171.75
828069 1 204.75 180.75 171.75
828788 1 201.75 198.75 171.75
828791 1 210.75 198.75 171.75
828794 1 219.75 198.75 171.75
829275 1 222.75 210.75 171.75
844267 1 198.75 225.75 174.75
844633 1 216.75 234.75 174.75
844634 1 219.75 234.75 174.75
857113 1 216.75 186.75 177.75
858552 1 213.75 222.75 177.75
858672 1 213.75 225.75 177.75
873168 1 141.75 228.75 180.75
873429 1 204.75 234.75 180.75
873911 1 210.75 246.75 180.75
902096 1 165.75 231.75 186.75
902235 1 222.75 234.75 186.75
902353 1 216.75 237.75 186.75
945439 1 234.75 234.75 195.75
2425612 1 155.25 161.25 146.25
2455506 1 197.25 188.25 152.25
2468930 1 149.25 164.25 155.25
2470990 1 209.25 215.25 155.25
2485372 1 155.25 215.25 158.25
2485388 1 203.25 215.25 158.25
2498100 1 179.25 173.25 161.25
2498222 1 185.25 176.25 161.25
2498588 1 203.25 185.25 161.25
2499532 1 155.25 209.25 161.25
2513346 1 197.25 194.25 164.25
2513706 1 197.25 203.25 164.25
2513948 1 203.25 209.25 164.25
2514053 1 158.25 212.25 164.25
2514431 1 212.25 221.25 164.25
2527028 1 203.25 176.25 167.25
2527867 1 200.25 197.25 167.25
2527984 1 191.25 200.25 167.25
2527987 1 200.25 200.25 167.25
2529551 1 212.25 239.25 167.25
2529555 1 224.25 239.25 167.25
2541784 1 191.25 185.25 170.25
2542389 1 206.25 200.25 170.25
2542509 1 206.25 203.25 170.25
2542513 1 218.25 203.25 170.25
2542869 1 206.25 212.25 170.25
2543833 1 218.25 236.25 170.25
2556788 1 203.25 200.25 173.25
2557149 1 206.25 209.25 173.25
2557749 1 206.25 224.25 173.25
2557990 1 209.25 230.25 173.25
2571911 1 212.25 218.25 176.25
2572029 1 206.25 221.25 176.25
2572149 1 206.25 224.25 176.25
2586524 1 131.25 224.25 179.25
2587033 1 218.25 236.25 179.25
2600951 1 212.25 224.25 182.25
2601786 1 197.25 245.25 182.25
2615324 1 131.25 224.25 185.25
2630226 1 197.25 236.25 188.25
2630473 1 218.25 242.25 188.25
2659149 1 206.25 239.25 194.25
2659385 1 194.25 245.25 194.25
