ITEM: TIMESTEP
95000
ITEM: NUMBER OF ATOMS
62
ITEM: BOX BOUNDS pp pp pp
0 360
0 360
0 360
ITEM: ATOMS id type x y z
725807 1 138.75 144.75 150.75
725929 1 144.75 147.75 150.75
769129 1 144.75 147.75 159.75
784375 1 162.75 168.75 162.75
841612 1 153.75 159.75 174.75
898852 1 153.75 150.75 186.75
928732 1 153.75 177.75 192.75
942046 1 135.75 150.75 195.75
972417 1 168.75 189.75 201.75
1015363 1 126.75 183.75 210.75
1044174 1 159.75 183.75 216.75
1045361 1 120.75 213.75 216.75
1046804 1 129.75 249.75 216.75
1074524 1 129.75 222.75 222.75
1088083 1 126.75 201.75 225.75
1101410 1 147.75 174.75 228.75
1233774 1 159.75 243.75 255.75
1261970 1 147.75 228.75 261.75
1262090 1 147.75 231.75 261.75
1265811 1 150.75 324.75 261.75
1279250 1 147.75 300.75 264.75
1290892 1 153.75 231.75 267.75
1291137 1 168.75 237.75 267.75
1291254 1 159.75 240.75 267.75
1304930 1 147.75 222.75 270.75
1305050 1 147.75 225.75 270.75
1305289 1 144.75 231.75 270.75
1305410 1 147.75 234.75 270.75
1319566 1 135.75 228.75 273.75
1320772 1 153.75 258.75 273.75
1363012 1 153.75 234.75 282.75
1363021 1 180.75 234.75 282.75
2468329 1 146.25 149.25 155.25
2498096 1 167.25 173.25 161.25
2555215 1 164.25 161.25 173.25
2655404 1 131.25 146.25 194.25
2670048 1 143.25 152.25 197.25
2670642 1 125.25 167.25 197.25
2713727 1 140.25 164.25 206.25
2757287 1 140.25 173.25 215.25
2771214 1 161.25 161.25 218.25
2786450 1 149.25 182.25 221.25
2802640 1 119.25 227.25 224.25
2803011 1 152.25 236.25 224.25
2817415 1 164.25 236.25 227.25
2829529 1 146.25 179.25 230.25
2904173 1 158.25 245.25 245.25
2917129 1 146.25 209.25 248.25
2961768 1 143.25 245.25 257.25
2961772 1 155.25 245.25 257.25
2989972 1 155.25 230.25 263.25
2990331 1 152.25 239.25 263.25
2993089 1 146.25 308.25 263.25
2993209 1 146.25 311.25 263.25
3004501 1 182.25 233.25 266.25
3008089 1 146.25 323.25 266.25
3008090 1 149.25 323.25 266.25
3018769 1 146.25 230.25 269.25
3018884 1 131.25 233.25 269.25
3018889 1 146.25 233.25 269.25
3048052 1 155.25 242.25 275.25
3048056 1 167.25 242.25 275.25
