ITEM: TIMESTEP
101772
ITEM: NUMBER OF ATOMS
82
ITEM: BOX BOUNDS pp pp pp
0 360
0 360
0 360
ITEM: ATOMS id type x y z
696535 1 162.75 132.75 144.75
697009 1 144.75 144.75 144.75
726050 1 147.75 150.75 150.75
740330 1 147.75 147.75 153.75
755568 1 141.75 168.75 156.75
769736 1 165.75 162.75 159.75
798773 1 156.75 168.75 165.75
798777 1 168.75 168.75 165.75
799015 1 162.75 174.75 165.75
813052 1 153.75 165.75 168.75
901261 1 180.75 210.75 186.75
945306 1 195.75 231.75 195.75
959706 1 195.75 231.75 198.75
987899 1 174.75 216.75 204.75
1031218 1 171.75 219.75 213.75
1090993 1 216.75 273.75 225.75
1104796 1 225.75 258.75 228.75
1106589 1 204.75 303.75 228.75
1149680 1 237.75 300.75 237.75
1149917 1 228.75 306.75 237.75
1162987 1 198.75 273.75 240.75
1208128 1 261.75 321.75 249.75
1208723 1 246.75 336.75 249.75
1235723 1 246.75 291.75 255.75
1235966 1 255.75 297.75 255.75
1236086 1 255.75 300.75 255.75
1236200 1 237.75 303.75 255.75
1236204 1 249.75 303.75 255.75
1237284 1 249.75 330.75 255.75
1238236 1 225.75 354.75 255.75
1238242 1 243.75 354.75 255.75
1250247 1 258.75 294.75 258.75
1251319 1 234.75 321.75 258.75
1264533 1 276.75 291.75 261.75
1265002 1 243.75 303.75 261.75
1265120 1 237.75 306.75 261.75
1265726 1 255.75 321.75 261.75
1266200 1 237.75 333.75 261.75
1279643 1 246.75 309.75 264.75
1280008 1 261.75 318.75 264.75
1293562 1 243.75 297.75 267.75
1293680 1 237.75 300.75 267.75
1307955 1 222.75 297.75 270.75
2424655 1 164.25 137.25 146.25
2425009 1 146.25 146.25 146.25
2439890 1 149.25 158.25 149.25
2439891 1 152.25 158.25 149.25
2498097 1 170.25 173.25 161.25
2512495 1 164.25 173.25 164.25
2526658 1 173.25 167.25 167.25
2555213 1 158.25 161.25 173.25
2585097 1 170.25 188.25 179.25
2599256 1 167.25 182.25 182.25
2660231 1 212.25 266.25 194.25
2673307 1 200.25 233.25 197.25
2716019 1 176.25 221.25 206.25
2717346 1 197.25 254.25 206.25
2761273 1 218.25 272.25 215.25
2775792 1 215.25 275.25 218.25
2833270 1 209.25 272.25 230.25
2877800 1 239.25 305.25 239.25
2893399 1 236.25 335.25 242.25
2922322 1 245.25 338.25 248.25
2935158 1 233.25 299.25 251.25
2935279 1 236.25 302.25 251.25
2949075 1 224.25 287.25 254.25
2950164 1 251.25 314.25 254.25
2964078 1 233.25 302.25 257.25
2964089 1 266.25 302.25 257.25
2965281 1 242.25 332.25 257.25
2965883 1 248.25 347.25 257.25
2978843 1 248.25 311.25 260.25
2992157 1 230.25 284.25 263.25
2992762 1 245.25 299.25 263.25
2993003 1 248.25 305.25 263.25
3007403 1 248.25 305.25 266.25
3007521 1 242.25 308.25 266.25
3008962 1 245.25 344.25 266.25
3035723 1 248.25 293.25 272.25
3035836 1 227.25 296.25 272.25
3050364 1 251.25 299.25 275.25
3050484 1 251.25 302.25 275.25
