ITEM: TIMESTEP
91383
ITEM: NUMBER OF ATOMS
59
ITEM: BOX BOUNDS pp pp pp
0 360
0 360
0 360
ITEM: ATOMS id type x y z
754729 1 144.75 147.75 156.75
769129 1 144.75 147.75 159.75
798653 1 156.75 165.75 165.75
813292 1 153.75 171.75 168.75
855289 1 144.75 141.75 177.75
929217 1 168.75 189.75 192.75
971202 1 123.75 159.75 201.75
1015259 1 174.75 180.75 210.75
1073453 1 156.75 195.75 222.75
1074052 1 153.75 210.75 222.75
1074299 1 174.75 216.75 222.75
1102490 1 147.75 201.75 228.75
1102980 1 177.75 213.75 228.75
1103216 1 165.75 219.75 228.75
1129721 1 120.75 162.75 234.75
1129965 1 132.75 168.75 234.75
1131418 1 171.75 204.75 234.75
1146172 1 153.75 213.75 237.75
1146777 1 168.75 228.75 237.75
1159728 1 141.75 192.75 240.75
1160214 1 159.75 204.75 240.75
1160332 1 153.75 207.75 240.75
1160461 1 180.75 210.75 240.75
1173533 1 156.75 177.75 243.75
1174973 1 156.75 213.75 243.75
1188890 1 147.75 201.75 246.75
1189131 1 150.75 207.75 246.75
1189853 1 156.75 225.75 246.75
1203772 1 153.75 213.75 249.75
1204136 1 165.75 222.75 249.75
1216235 1 102.75 165.75 252.75
1217932 1 153.75 207.75 252.75
1218049 1 144.75 210.75 252.75
1232445 1 132.75 210.75 255.75
1232565 1 132.75 213.75 255.75
1261010 1 147.75 204.75 261.75
1275397 1 108.75 204.75 264.75
1288960 1 117.75 183.75 267.75
1318479 1 114.75 201.75 273.75
2612934 1 161.25 164.25 185.25
2657571 1 152.25 200.25 194.25
2713964 1 131.25 170.25 206.25
2714933 1 158.25 194.25 206.25
2728485 1 134.25 173.25 209.25
2743017 1 170.25 176.25 212.25
2758981 1 182.25 215.25 215.25
2785967 1 140.25 170.25 221.25
2816334 1 161.25 209.25 227.25
2829167 1 140.25 170.25 230.25
2843207 1 140.25 161.25 233.25
2860135 1 164.25 224.25 236.25
2873688 1 143.25 203.25 239.25
2888693 1 158.25 218.25 242.25
2901995 1 104.25 191.25 245.25
2903200 1 119.25 221.25 245.25
2916051 1 152.25 182.25 248.25
2930925 1 134.25 194.25 251.25
2931651 1 152.25 212.25 251.25
2945809 1 146.25 206.25 254.25
