ITEM: TIMESTEP
86000
ITEM: NUMBER OF ATOMS
54
ITEM: BOX BOUNDS pp pp pp
0 360
0 360
0 360
ITEM: ATOMS id type x y z
696409 1 144.75 129.75 144.75
783039 1 114.75 135.75 162.75
797570 1 147.75 138.75 165.75
797808 1 141.75 144.75 165.75
797930 1 147.75 147.75 165.75
812328 1 141.75 147.75 168.75
855263 1 66.75 141.75 177.75
856613 1 156.75 174.75 177.75
871826 1 75.75 195.75 180.75
885042 1 123.75 165.75 183.75
940484 1 129.75 111.75 195.75
940603 1 126.75 114.75 195.75
942750 1 87.75 168.75 195.75
956911 1 90.75 162.75 198.75
967833 1 96.75 75.75 201.75
971310 1 87.75 162.75 201.75
971430 1 87.75 165.75 201.75
999163 1 126.75 138.75 207.75
1029275 1 102.75 171.75 213.75
1056051 1 150.75 120.75 219.75
1087352 1 93.75 183.75 225.75
1101027 1 78.75 165.75 228.75
1101632 1 93.75 180.75 228.75
1110756 1 105.75 48.75 231.75
1145541 1 60.75 198.75 237.75
2282224 1 191.25 176.25 116.25
2352179 1 176.25 125.25 131.25
2380509 1 206.25 113.25 137.25
2511039 1 116.25 137.25 164.25
2511169 1 146.25 140.25 164.25
2540089 1 146.25 143.25 170.25
2540208 1 143.25 146.25 170.25
2540799 1 116.25 161.25 170.25
2551952 1 95.25 80.25 173.25
2554488 1 143.25 143.25 173.25
2570092 1 155.25 173.25 176.25
2571024 1 71.25 197.25 176.25
2583535 1 164.25 149.25 179.25
2585425 1 74.25 197.25 179.25
2597934 1 161.25 149.25 182.25
2654189 1 86.25 116.25 194.25
2654203 1 128.25 116.25 194.25
2667031 1 92.25 77.25 197.25
2670510 1 89.25 164.25 197.25
2684909 1 86.25 164.25 200.25
2714181 1 62.25 176.25 206.25
2730039 1 116.25 212.25 209.25
2730158 1 113.25 215.25 209.25
2742742 1 65.25 170.25 212.25
2798210 1 149.25 116.25 224.25
2798329 1 146.25 119.25 224.25
2798331 1 152.25 119.25 224.25
2814507 1 80.25 164.25 227.25
2970639 1 116.25 107.25 260.25
