ITEM: TIMESTEP
93000
ITEM: NUMBER OF ATOMS
94
ITEM: BOX BOUNDS pp pp pp
0 360
0 360
0 360
ITEM: ATOMS id type x y z
94508 1 201.75 201.75 18.75
108910 1 207.75 201.75 21.75
109030 1 207.75 204.75 21.75
122831 1 210.75 189.75 24.75
123190 1 207.75 198.75 24.75
123432 1 213.75 204.75 24.75
123551 1 210.75 207.75 24.75
137593 1 216.75 198.75 27.75
137832 1 213.75 204.75 27.75
138192 1 213.75 213.75 27.75
151393 1 216.75 183.75 30.75
151751 1 210.75 192.75 30.75
151754 1 219.75 192.75 30.75
166871 1 210.75 210.75 33.75
497466 1 195.75 195.75 102.75
539713 1 216.75 171.75 111.75
569225 1 192.75 189.75 117.75
569340 1 177.75 192.75 117.75
595495 1 162.75 126.75 123.75
653822 1 183.75 144.75 135.75
683590 1 207.75 168.75 141.75
697501 1 180.75 156.75 144.75
711056 1 165.75 135.75 147.75
726175 1 162.75 153.75 150.75
754140 1 177.75 132.75 156.75
768310 1 207.75 126.75 159.75
768901 1 180.75 141.75 159.75
784379 1 174.75 168.75 162.75
786306 1 195.75 216.75 162.75
786426 1 195.75 219.75 162.75
797336 1 165.75 132.75 165.75
797821 1 180.75 144.75 165.75
797943 1 186.75 147.75 165.75
800343 1 186.75 207.75 165.75
801315 1 222.75 231.75 165.75
812343 1 186.75 147.75 168.75
812457 1 168.75 150.75 168.75
812938 1 171.75 162.75 168.75
813183 1 186.75 168.75 168.75
827581 1 180.75 168.75 171.75
860113 1 216.75 261.75 177.75
876435 1 222.75 309.75 180.75
933315 1 222.75 291.75 192.75
1005320 1 237.75 291.75 207.75
1006030 1 207.75 309.75 207.75
1822273 1 218.25 197.25 20.25
1822389 1 206.25 200.25 20.25
1836671 1 212.25 197.25 23.25
1836791 1 212.25 200.25 23.25
1836794 1 221.25 200.25 23.25
1837514 1 221.25 218.25 23.25
1850712 1 215.25 188.25 26.25
1851068 1 203.25 197.25 26.25
1851190 1 209.25 200.25 26.25
1851191 1 212.25 200.25 26.25
1864992 1 215.25 185.25 29.25
1865831 1 212.25 206.25 29.25
1894031 1 212.25 191.25 35.25
2109671 1 212.25 182.25 80.25
2124190 1 209.25 185.25 83.25
2124429 1 206.25 191.25 83.25
2253314 1 221.25 173.25 110.25
2268304 1 191.25 188.25 113.25
2294693 1 158.25 128.25 119.25
2296509 1 206.25 173.25 119.25
2297342 1 185.25 194.25 119.25
2382422 1 185.25 161.25 137.25
2410609 1 146.25 146.25 143.25
2439059 1 176.25 137.25 149.25
2439534 1 161.25 149.25 149.25
2439537 1 170.25 149.25 149.25
2453819 1 176.25 146.25 152.25
2468217 1 170.25 146.25 155.25
2468220 1 179.25 146.25 155.25
2471106 1 197.25 218.25 155.25
2482619 1 176.25 146.25 158.25
2485747 1 200.25 224.25 158.25
2497015 1 164.25 146.25 161.25
2497139 1 176.25 149.25 161.25
2499304 1 191.25 203.25 161.25
2512258 1 173.25 167.25 164.25
2512261 1 182.25 167.25 164.25
2513219 1 176.25 191.25 164.25
2526060 1 179.25 152.25 167.25
2526660 1 179.25 167.25 167.25
2528826 1 197.25 221.25 167.25
2529435 1 224.25 236.25 167.25
2543707 1 200.25 233.25 170.25
2587629 1 206.25 251.25 179.25
2588112 1 215.25 263.25 179.25
2588113 1 218.25 263.25 179.25
2602513 1 218.25 263.25 182.25
2647402 1 245.25 305.25 191.25
2661319 1 236.25 293.25 194.25
