ITEM: TIMESTEP
88592
ITEM: NUMBER OF ATOMS
60
ITEM: BOX BOUNDS pp pp pp
0 360
0 360
0 360
ITEM: ATOMS id type x y z
797332 1 153.75 132.75 165.75
811981 1 180.75 138.75 168.75
840415 1 162.75 129.75 174.75
840534 1 159.75 132.75 174.75
840535 1 162.75 132.75 174.75
840537 1 168.75 132.75 174.75
855052 1 153.75 135.75 177.75
855053 1 156.75 135.75 177.75
855173 1 156.75 138.75 177.75
858400 1 117.75 219.75 177.75
868853 1 156.75 120.75 180.75
868973 1 156.75 123.75 180.75
869340 1 177.75 132.75 180.75
869817 1 168.75 144.75 180.75
870049 1 144.75 150.75 180.75
870052 1 153.75 150.75 180.75
883733 1 156.75 132.75 183.75
883972 1 153.75 138.75 183.75
883973 1 156.75 138.75 183.75
883974 1 159.75 138.75 183.75
884092 1 153.75 141.75 183.75
884692 1 153.75 156.75 183.75
886604 1 129.75 204.75 183.75
898376 1 165.75 138.75 186.75
898496 1 165.75 141.75 186.75
898852 1 153.75 150.75 186.75
900519 1 114.75 192.75 186.75
912890 1 147.75 141.75 189.75
912896 1 165.75 141.75 189.75
913372 1 153.75 153.75 189.75
926455 1 162.75 120.75 192.75
926571 1 150.75 123.75 192.75
944317 1 108.75 207.75 195.75
955614 1 159.75 129.75 198.75
2438820 1 179.25 131.25 149.25
2510565 1 134.25 125.25 164.25
2525572 1 155.25 140.25 167.25
2539012 1 155.25 116.25 170.25
2539614 1 161.25 131.25 170.25
2539982 1 185.25 140.25 170.25
2554132 1 155.25 134.25 173.25
2571643 1 128.25 212.25 176.25
2582934 1 161.25 134.25 179.25
2583416 1 167.25 146.25 179.25
2597105 1 194.25 128.25 182.25
2597576 1 167.25 140.25 182.25
2598051 1 152.25 152.25 182.25
2600444 1 131.25 212.25 182.25
2611850 1 149.25 137.25 185.25
2611970 1 149.25 140.25 185.25
2611972 1 155.25 140.25 185.25
2612212 1 155.25 146.25 185.25
2612213 1 158.25 146.25 185.25
2612214 1 161.25 146.25 185.25
2612452 1 155.25 152.25 185.25
2613880 1 119.25 188.25 185.25
2626495 1 164.25 143.25 188.25
2627330 1 149.25 164.25 188.25
2641730 1 149.25 164.25 191.25
2669458 1 173.25 137.25 197.25
