ITEM: TIMESTEP
85000
ITEM: NUMBER OF ATOMS
66
ITEM: BOX BOUNDS pp pp pp
0 360
0 360
0 360
ITEM: ATOMS id type x y z
580639 1 234.75 114.75 120.75
694997 1 228.75 93.75 144.75
708796 1 225.75 78.75 147.75
738428 1 201.75 99.75 153.75
740691 1 150.75 156.75 153.75
754613 1 156.75 144.75 156.75
769011 1 150.75 144.75 159.75
771421 1 180.75 204.75 159.75
782087 1 138.75 111.75 162.75
782576 1 165.75 123.75 162.75
796731 1 150.75 117.75 165.75
796732 1 153.75 117.75 165.75
811140 1 177.75 117.75 168.75
811141 1 180.75 117.75 168.75
811499 1 174.75 126.75 168.75
825290 1 147.75 111.75 171.75
825413 1 156.75 114.75 171.75
825540 1 177.75 117.75 171.75
825765 1 132.75 123.75 171.75
825772 1 153.75 123.75 171.75
826374 1 159.75 138.75 171.75
826494 1 159.75 141.75 171.75
840534 1 159.75 132.75 174.75
840772 1 153.75 138.75 174.75
854453 1 156.75 120.75 177.75
854455 1 162.75 120.75 177.75
854930 1 147.75 132.75 177.75
871381 1 180.75 183.75 180.75
882541 1 180.75 102.75 183.75
896574 1 159.75 93.75 186.75
928967 1 138.75 183.75 192.75
929091 1 150.75 186.75 192.75
957535 1 162.75 177.75 198.75
971823 1 186.75 174.75 201.75
971935 1 162.75 177.75 201.75
985746 1 195.75 162.75 204.75
2337313 1 218.25 113.25 128.25
2337314 1 221.25 113.25 128.25
2351834 1 221.25 116.25 131.25
2379909 1 206.25 98.25 137.25
2412784 1 191.25 200.25 143.25
2454895 1 164.25 173.25 152.25
2468333 1 158.25 149.25 155.25
2470383 1 188.25 200.25 155.25
2484778 1 173.25 200.25 158.25
2494980 1 179.25 95.25 161.25
2498213 1 158.25 176.25 161.25
2510095 1 164.25 113.25 164.25
2510452 1 155.25 122.25 164.25
2524500 1 179.25 113.25 167.25
2524612 1 155.25 116.25 167.25
2524858 1 173.25 122.25 167.25
2538888 1 143.25 113.25 170.25
2539729 1 146.25 134.25 170.25
2539972 1 155.25 140.25 170.25
2542015 1 164.25 191.25 170.25
2552819 1 176.25 101.25 173.25
2567816 1 167.25 116.25 176.25
2567931 1 152.25 119.25 176.25
2570459 1 176.25 182.25 176.25
2582455 1 164.25 122.25 179.25
2584131 1 152.25 164.25 179.25
2614377 1 170.25 200.25 185.25
2628415 1 164.25 191.25 188.25
2685661 1 182.25 182.25 200.25
2728730 1 149.25 179.25 209.25
