ITEM: TIMESTEP
91293
ITEM: NUMBER OF ATOMS
93
ITEM: BOX BOUNDS pp pp pp
0 360
0 360
0 360
ITEM: ATOMS id type x y z
512255 1 282.75 204.75 105.75
512374 1 279.75 207.75 105.75
571531 1 270.75 246.75 117.75
684928 1 261.75 201.75 141.75
684929 1 264.75 201.75 141.75
685048 1 261.75 204.75 141.75
699334 1 279.75 201.75 144.75
713495 1 282.75 195.75 147.75
713735 1 282.75 201.75 147.75
738556 1 225.75 102.75 153.75
754024 1 189.75 129.75 156.75
754500 1 177.75 141.75 156.75
768425 1 192.75 129.75 159.75
783198 1 231.75 138.75 162.75
787176 1 285.75 237.75 162.75
787177 1 288.75 237.75 162.75
796395 1 222.75 108.75 165.75
797479 1 234.75 135.75 165.75
797598 1 231.75 138.75 165.75
797599 1 234.75 138.75 165.75
797718 1 231.75 141.75 165.75
798666 1 195.75 165.75 165.75
798671 1 210.75 165.75 165.75
801577 1 288.75 237.75 165.75
801696 1 285.75 240.75 165.75
801697 1 288.75 240.75 165.75
801817 1 288.75 243.75 165.75
813186 1 195.75 168.75 168.75
814409 1 264.75 198.75 168.75
815386 1 315.75 222.75 168.75
830618 1 291.75 243.75 171.75
844898 1 291.75 240.75 174.75
854462 1 183.75 120.75 177.75
854702 1 183.75 126.75 177.75
868863 1 186.75 120.75 180.75
869101 1 180.75 126.75 180.75
870066 1 195.75 150.75 180.75
870185 1 192.75 153.75 180.75
871397 1 228.75 183.75 180.75
884586 1 195.75 153.75 183.75
927195 1 222.75 138.75 192.75
927316 1 225.75 141.75 192.75
941596 1 225.75 138.75 195.75
941714 1 219.75 141.75 195.75
955994 1 219.75 138.75 198.75
956115 1 222.75 141.75 198.75
1071434 1 219.75 144.75 222.75
2326142 1 185.25 194.25 125.25
2353771 1 272.25 164.25 131.25
2398527 1 260.25 203.25 140.25
2412808 1 263.25 200.25 143.25
2412813 1 278.25 200.25 143.25
2414496 1 287.25 242.25 143.25
2427093 1 278.25 197.25 146.25
2427213 1 278.25 200.25 146.25
2427214 1 281.25 200.25 146.25
2427334 1 281.25 203.25 146.25
2441613 1 278.25 200.25 149.25
2452036 1 227.25 101.25 152.25
2452274 1 221.25 107.25 152.25
2486136 1 287.25 233.25 158.25
2496191 1 212.25 125.25 161.25
2500535 1 284.25 233.25 161.25
2500656 1 287.25 236.25 161.25
2500775 1 284.25 239.25 161.25
2500895 1 284.25 242.25 161.25
2511079 1 236.25 137.25 164.25
2515057 1 290.25 236.25 164.25
2515175 1 284.25 239.25 164.25
2515176 1 287.25 239.25 164.25
2525478 1 233.25 137.25 167.25
2525597 1 230.25 140.25 167.25
2529697 1 290.25 242.25 167.25
2542288 1 263.25 197.25 170.25
2572897 1 290.25 242.25 176.25
2582583 1 188.25 125.25 179.25
2584878 1 233.25 182.25 179.25
2584997 1 230.25 185.25 179.25
2596861 1 182.25 122.25 182.25
2597101 1 182.25 128.25 182.25
2597222 1 185.25 131.25 182.25
2599277 1 230.25 182.25 182.25
2599422 1 305.25 185.25 182.25
2611502 1 185.25 128.25 185.25
2640795 1 224.25 140.25 191.25
2641158 1 233.25 149.25 191.25
2643585 1 314.25 209.25 191.25
2655204 1 251.25 140.25 194.25
2659171 1 272.25 239.25 194.25
2683994 1 221.25 140.25 200.25
2728281 1 242.25 167.25 209.25
2785034 1 221.25 146.25 221.25
2812398 1 233.25 110.25 227.25
