ITEM: TIMESTEP
90466
ITEM: NUMBER OF ATOMS
56
ITEM: BOX BOUNDS pp pp pp
0 360
0 360
0 360
ITEM: ATOMS id type x y z
597299 1 174.75 171.75 123.75
611579 1 174.75 168.75 126.75
611698 1 171.75 171.75 126.75
611700 1 177.75 171.75 126.75
613850 1 147.75 225.75 126.75
613851 1 150.75 225.75 126.75
673975 1 162.75 288.75 138.75
674096 1 165.75 291.75 138.75
688376 1 165.75 288.75 141.75
703004 1 129.75 294.75 144.75
703975 1 162.75 318.75 144.75
716927 1 138.75 282.75 147.75
718495 1 162.75 321.75 147.75
725801 1 120.75 144.75 150.75
725921 1 120.75 147.75 150.75
755571 1 150.75 168.75 156.75
757015 1 162.75 204.75 156.75
770085 1 132.75 171.75 159.75
775621 1 180.75 309.75 159.75
784873 1 216.75 180.75 162.75
786160 1 117.75 213.75 162.75
790020 1 177.75 309.75 162.75
797946 1 195.75 147.75 165.75
827441 1 120.75 165.75 171.75
828776 1 165.75 198.75 171.75
860818 1 171.75 279.75 177.75
889728 1 141.75 282.75 183.75
928140 1 177.75 162.75 192.75
987053 1 156.75 195.75 204.75
999666 1 195.75 150.75 207.75
999785 1 192.75 153.75 207.75
1014065 1 192.75 150.75 210.75
1014186 1 195.75 153.75 210.75
2129212 1 155.25 311.25 83.25
2226055 1 164.25 212.25 104.25
2240454 1 161.25 212.25 107.25
2338611 1 152.25 146.25 128.25
2340899 1 176.25 203.25 128.25
2341611 1 152.25 221.25 128.25
2341730 1 149.25 224.25 128.25
2342202 1 125.25 236.25 128.25
2353719 1 116.25 164.25 131.25
2355179 1 176.25 200.25 131.25
2453801 1 122.25 146.25 152.25
2470493 1 158.25 203.25 155.25
2470614 1 161.25 206.25 155.25
2472537 1 170.25 254.25 155.25
2484894 1 161.25 203.25 158.25
2485013 1 158.25 206.25 158.25
2488261 1 182.25 287.25 158.25
2489221 1 182.25 311.25 158.25
2497259 1 176.25 152.25 161.25
2498704 1 191.25 188.25 161.25
2584492 1 155.25 173.25 179.25
2727664 1 191.25 152.25 209.25
2755384 1 191.25 125.25 215.25
