ITEM: TIMESTEP
85621
ITEM: NUMBER OF ATOMS
69
ITEM: BOX BOUNDS pp pp pp
0 360
0 360
0 360
ITEM: ATOMS id type x y z
508885 1 252.75 120.75 105.75
522179 1 174.75 93.75 108.75
565145 1 192.75 87.75 117.75
566483 1 246.75 120.75 117.75
566600 1 237.75 123.75 117.75
567558 1 231.75 147.75 117.75
595403 1 246.75 123.75 123.75
595632 1 213.75 129.75 123.75
608464 1 189.75 90.75 126.75
610521 1 240.75 141.75 126.75
623577 1 168.75 108.75 129.75
623966 1 255.75 117.75 129.75
624443 1 246.75 129.75 129.75
637024 1 189.75 84.75 132.75
643154 1 219.75 237.75 132.75
653121 1 240.75 126.75 135.75
667404 1 249.75 123.75 138.75
667405 1 252.75 123.75 138.75
682845 1 132.75 150.75 141.75
696184 1 189.75 123.75 144.75
699307 1 198.75 201.75 144.75
712256 1 165.75 165.75 147.75
726659 1 174.75 165.75 150.75
727867 1 198.75 195.75 150.75
727987 1 198.75 198.75 150.75
729070 1 207.75 225.75 150.75
739521 1 240.75 126.75 153.75
755350 1 207.75 162.75 156.75
769975 1 162.75 168.75 159.75
784373 1 156.75 168.75 162.75
814870 1 207.75 210.75 168.75
814871 1 210.75 210.75 168.75
814873 1 216.75 210.75 168.75
828434 1 219.75 189.75 171.75
856987 1 198.75 183.75 177.75
2279362 1 245.25 104.25 116.25
2279720 1 239.25 113.25 116.25
2307663 1 188.25 92.25 122.25
2308160 1 239.25 104.25 122.25
2336223 1 188.25 86.25 128.25
2337802 1 245.25 125.25 128.25
2353370 1 149.25 155.25 131.25
2366825 1 194.25 131.25 134.25
2366844 1 251.25 131.25 134.25
2367207 1 260.25 140.25 134.25
2381004 1 251.25 125.25 137.25
2381950 1 209.25 149.25 137.25
2382189 1 206.25 155.25 137.25
2397061 1 182.25 167.25 140.25
2397187 1 200.25 170.25 140.25
2425982 1 185.25 170.25 146.25
2426216 1 167.25 176.25 146.25
2439538 1 173.25 149.25 149.25
2439906 1 197.25 158.25 149.25
2440736 1 167.25 179.25 149.25
2442186 1 197.25 215.25 149.25
2442309 1 206.25 218.25 149.25
2442546 1 197.25 224.25 149.25
2454181 1 182.25 155.25 152.25
2456587 1 200.25 215.25 152.25
2471589 1 206.25 230.25 155.25
2497619 1 176.25 161.25 161.25
2511666 1 197.25 152.25 164.25
2513947 1 200.25 209.25 164.25
2585105 1 194.25 188.25 179.25
2586426 1 197.25 221.25 179.25
2599028 1 203.25 176.25 182.25
2599147 1 200.25 179.25 182.25
2599509 1 206.25 188.25 182.25
