ITEM: TIMESTEP
94000
ITEM: NUMBER OF ATOMS
166
ITEM: BOX BOUNDS pp pp pp
0 360
0 360
0 360
ITEM: ATOMS id type x y z
683576 1 165.75 168.75 141.75
697009 1 144.75 144.75 144.75
727264 1 189.75 180.75 150.75
772503 1 186.75 231.75 159.75
786667 1 198.75 225.75 162.75
798648 1 141.75 165.75 165.75
813643 1 126.75 180.75 168.75
828045 1 132.75 180.75 171.75
842090 1 147.75 171.75 174.75
842205 1 132.75 174.75 174.75
843905 1 192.75 216.75 174.75
844267 1 198.75 225.75 174.75
856607 1 138.75 174.75 177.75
858415 1 162.75 219.75 177.75
858545 1 192.75 222.75 177.75
858546 1 195.75 222.75 177.75
858662 1 183.75 225.75 177.75
858665 1 192.75 225.75 177.75
858783 1 186.75 228.75 177.75
858785 1 192.75 228.75 177.75
858900 1 177.75 231.75 177.75
858901 1 180.75 231.75 177.75
872701 1 180.75 216.75 180.75
872702 1 183.75 216.75 180.75
872821 1 180.75 219.75 180.75
873061 1 180.75 225.75 180.75
873062 1 183.75 225.75 180.75
873183 1 186.75 228.75 180.75
873303 1 186.75 231.75 180.75
873304 1 189.75 231.75 180.75
873307 1 198.75 231.75 180.75
886983 1 186.75 213.75 183.75
887100 1 177.75 216.75 183.75
887101 1 180.75 216.75 183.75
887224 1 189.75 219.75 183.75
887340 1 177.75 222.75 183.75
887465 1 192.75 225.75 183.75
887580 1 177.75 228.75 183.75
887583 1 186.75 228.75 183.75
887942 1 183.75 237.75 183.75
901133 1 156.75 207.75 186.75
901383 1 186.75 213.75 186.75
901499 1 174.75 216.75 186.75
901500 1 177.75 216.75 186.75
901742 1 183.75 222.75 186.75
901861 1 180.75 225.75 186.75
901980 1 177.75 228.75 186.75
901988 1 201.75 228.75 186.75
915289 1 144.75 201.75 189.75
915899 1 174.75 216.75 189.75
915907 1 198.75 216.75 189.75
916020 1 177.75 219.75 189.75
916021 1 180.75 219.75 189.75
916022 1 183.75 219.75 189.75
916140 1 177.75 222.75 189.75
916141 1 180.75 222.75 189.75
916261 1 180.75 225.75 189.75
916380 1 177.75 228.75 189.75
916381 1 180.75 228.75 189.75
916383 1 186.75 228.75 189.75
916384 1 189.75 228.75 189.75
916623 1 186.75 234.75 189.75
929818 1 171.75 204.75 192.75
930299 1 174.75 216.75 192.75
930420 1 177.75 219.75 192.75
930421 1 180.75 219.75 192.75
930540 1 177.75 222.75 192.75
930543 1 186.75 222.75 192.75
930663 1 186.75 225.75 192.75
945547 1 198.75 237.75 195.75
959702 1 183.75 231.75 198.75
959703 1 186.75 231.75 198.75
988140 1 177.75 222.75 204.75
988384 1 189.75 228.75 204.75
1002780 1 177.75 228.75 207.75
1060380 1 177.75 228.75 219.75
1073475 1 222.75 195.75 222.75
1073715 1 222.75 201.75 222.75
1087993 1 216.75 198.75 225.75
2397293 1 158.25 173.25 140.25
2410851 1 152.25 152.25 143.25
2410854 1 161.25 152.25 143.25
2410971 1 152.25 155.25 143.25
2425614 1 161.25 161.25 146.25
2483690 1 149.25 173.25 158.25
2514419 1 176.25 221.25 164.25
2572262 1 185.25 227.25 176.25
2572263 1 188.25 227.25 176.25
2572382 1 185.25 230.25 176.25
2572383 1 188.25 230.25 176.25
2572982 1 185.25 245.25 176.25
2573102 1 185.25 248.25 176.25
2586306 1 197.25 218.25 179.25
2586307 1 200.25 218.25 179.25
2586421 1 182.25 221.25 179.25
2586422 1 185.25 221.25 179.25
2586427 1 200.25 221.25 179.25
2586541 1 182.25 224.25 179.25
2586543 1 188.25 224.25 179.25
2586549 1 206.25 224.25 179.25
2586660 1 179.25 227.25 179.25
2586780 1 179.25 230.25 179.25
2586781 1 182.25 230.25 179.25
2600579 1 176.25 215.25 182.25
2600580 1 179.25 215.25 182.25
2600699 1 176.25 218.25 182.25
2600819 1 176.25 221.25 182.25
2600821 1 182.25 221.25 182.25
2600825 1 194.25 221.25 182.25
2600940 1 179.25 224.25 182.25
2601060 1 179.25 227.25 182.25
2601062 1 185.25 227.25 182.25
2601184 1 191.25 230.25 182.25
2601780 1 179.25 245.25 182.25
2614982 1 185.25 215.25 185.25
2615100 1 179.25 218.25 185.25
2615219 1 176.25 221.25 185.25
2615220 1 179.25 221.25 185.25
2615221 1 182.25 221.25 185.25
2615224 1 191.25 221.25 185.25
2615340 1 179.25 224.25 185.25
2615341 1 182.25 224.25 185.25
2615460 1 179.25 227.25 185.25
2615462 1 185.25 227.25 185.25
2615466 1 197.25 227.25 185.25
2615582 1 185.25 230.25 185.25
2615583 1 188.25 230.25 185.25
2615584 1 191.25 230.25 185.25
2616063 1 188.25 242.25 185.25
2629620 1 179.25 221.25 188.25
2629623 1 188.25 221.25 188.25
2629624 1 191.25 221.25 188.25
2629742 1 185.25 224.25 188.25
2629744 1 191.25 224.25 188.25
2629858 1 173.25 227.25 188.25
2629860 1 179.25 227.25 188.25
2629861 1 182.25 227.25 188.25
2629863 1 188.25 227.25 188.25
2629982 1 185.25 230.25 188.25
2630824 1 191.25 251.25 188.25
2643899 1 176.25 218.25 191.25
2644024 1 191.25 221.25 191.25
2644144 1 191.25 224.25 191.25
2644260 1 179.25 227.25 191.25
2644262 1 185.25 227.25 191.25
2644382 1 185.25 230.25 191.25
2644383 1 188.25 230.25 191.25
2644621 1 182.25 236.25 191.25
2658299 1 176.25 218.25 194.25
2658421 1 182.25 221.25 194.25
2658546 1 197.25 224.25 194.25
2658659 1 176.25 227.25 194.25
2672943 1 188.25 224.25 197.25
2673421 1 182.25 236.25 197.25
2673665 1 194.25 242.25 197.25
2687819 1 176.25 236.25 200.25
2701502 1 185.25 218.25 203.25
2701863 1 188.25 227.25 203.25
2701981 1 182.25 230.25 203.25
2701982 1 185.25 230.25 203.25
2702104 1 191.25 233.25 203.25
2702582 1 185.25 245.25 203.25
2716381 1 182.25 230.25 206.25
2716504 1 191.25 233.25 206.25
2730304 1 191.25 218.25 209.25
2788379 1 176.25 230.25 221.25
