ITEM: TIMESTEP
86000
ITEM: NUMBER OF ATOMS
54
ITEM: BOX BOUNDS pp pp pp
0 360
0 360
0 360
ITEM: ATOMS id type x y z
712491 1 150.75 171.75 147.75
784370 1 147.75 168.75 162.75
784611 1 150.75 174.75 162.75
798539 1 174.75 162.75 165.75
799015 1 162.75 174.75 165.75
827575 1 162.75 168.75 171.75
827693 1 156.75 171.75 171.75
827810 1 147.75 174.75 171.75
854348 1 201.75 117.75 177.75
870774 1 159.75 168.75 180.75
871730 1 147.75 192.75 180.75
884580 1 177.75 153.75 183.75
898386 1 195.75 138.75 186.75
900407 1 138.75 189.75 186.75
912793 1 216.75 138.75 189.75
912906 1 195.75 141.75 189.75
912907 1 198.75 141.75 189.75
970513 1 216.75 141.75 201.75
970861 1 180.75 150.75 201.75
1029653 1 156.75 180.75 213.75
1029761 1 120.75 183.75 213.75
1116529 1 144.75 192.75 231.75
2424889 1 146.25 143.25 146.25
2425009 1 146.25 146.25 146.25
2439530 1 149.25 149.25 149.25
2526772 1 155.25 170.25 167.25
2526892 1 155.25 173.25 167.25
2540702 1 185.25 158.25 170.25
2554750 1 209.25 149.25 173.25
2554859 1 176.25 152.25 173.25
2555453 1 158.25 167.25 173.25
2555588 1 203.25 170.25 173.25
2555691 1 152.25 173.25 173.25
2568780 1 179.25 140.25 176.25
2568784 1 191.25 140.25 176.25
2569021 1 182.25 146.25 176.25
2569141 1 182.25 149.25 176.25
2569385 1 194.25 155.25 176.25
2597581 1 182.25 140.25 182.25
2597699 1 176.25 143.25 182.25
2598661 1 182.25 167.25 182.25
2611503 1 188.25 128.25 185.25
2626386 1 197.25 140.25 188.25
2640302 1 185.25 128.25 191.25
2656016 1 167.25 161.25 194.25
2700639 1 116.25 197.25 203.25
2701002 1 125.25 206.25 203.25
2715402 1 125.25 206.25 206.25
2715644 1 131.25 212.25 206.25
2744802 1 125.25 221.25 212.25
2773004 1 131.25 206.25 218.25
2773721 1 122.25 224.25 218.25
2830838 1 113.25 212.25 230.25
2874399 1 116.25 221.25 239.25
