ITEM: TIMESTEP
91209
ITEM: NUMBER OF ATOMS
107
ITEM: BOX BOUNDS pp pp pp
0 360
0 360
0 360
ITEM: ATOMS id type x y z
625375 1 162.75 153.75 129.75
642035 1 102.75 210.75 132.75
698918 1 111.75 192.75 144.75
726174 1 159.75 153.75 150.75
728554 1 99.75 213.75 150.75
728557 1 108.75 213.75 150.75
740574 1 159.75 153.75 153.75
742473 1 96.75 201.75 153.75
754858 1 171.75 150.75 156.75
754859 1 174.75 150.75 156.75
755093 1 156.75 156.75 156.75
755215 1 162.75 159.75 156.75
755216 1 165.75 159.75 156.75
769495 1 162.75 156.75 159.75
782938 1 171.75 132.75 162.75
783535 1 162.75 147.75 162.75
783775 1 162.75 153.75 162.75
783776 1 165.75 153.75 162.75
783896 1 165.75 156.75 162.75
784014 1 159.75 159.75 162.75
797813 1 156.75 144.75 165.75
797822 1 183.75 144.75 165.75
798654 1 159.75 165.75 165.75
812461 1 180.75 150.75 168.75
812573 1 156.75 153.75 168.75
812931 1 150.75 162.75 168.75
827213 1 156.75 159.75 171.75
827332 1 153.75 162.75 171.75
827333 1 156.75 162.75 171.75
827450 1 147.75 165.75 171.75
840891 1 150.75 141.75 174.75
841253 1 156.75 150.75 174.75
841372 1 153.75 153.75 174.75
855890 1 147.75 156.75 177.75
856130 1 147.75 162.75 177.75
869694 1 159.75 141.75 180.75
884812 1 153.75 159.75 183.75
884813 1 156.75 159.75 183.75
884814 1 159.75 159.75 183.75
898490 1 147.75 141.75 186.75
899336 1 165.75 162.75 186.75
913491 1 150.75 156.75 189.75
927775 1 162.75 153.75 192.75
928013 1 156.75 159.75 192.75
942174 1 159.75 153.75 195.75
956932 1 153.75 162.75 198.75
956933 1 156.75 162.75 198.75
1030365 1 132.75 198.75 213.75
1030485 1 132.75 201.75 213.75
1074642 1 123.75 225.75 222.75
1132362 1 123.75 228.75 234.75
1191280 1 117.75 261.75 246.75
1191519 1 114.75 267.75 246.75
1202089 1 144.75 171.75 249.75
2384795 1 104.25 221.25 137.25
2398713 1 98.25 209.25 140.25
2411568 1 143.25 170.25 143.25
2412516 1 107.25 194.25 143.25
2426436 1 107.25 182.25 146.25
2455011 1 152.25 176.25 152.25
2468812 1 155.25 161.25 155.25
2468813 1 158.25 161.25 155.25
2482971 1 152.25 155.25 158.25
2482975 1 164.25 155.25 158.25
2483210 1 149.25 161.25 158.25
2483328 1 143.25 164.25 158.25
2483448 1 143.25 167.25 158.25
2497372 1 155.25 155.25 161.25
2497373 1 158.25 155.25 161.25
2497492 1 155.25 158.25 161.25
2497493 1 158.25 158.25 161.25
2511060 1 179.25 137.25 164.25
2526052 1 155.25 152.25 167.25
2526054 1 161.25 152.25 167.25
2526293 1 158.25 158.25 167.25
2526294 1 161.25 158.25 167.25
2526413 1 158.25 161.25 167.25
2526530 1 149.25 164.25 167.25
2540331 1 152.25 149.25 170.25
2568897 1 170.25 143.25 176.25
2569130 1 149.25 149.25 176.25
2569250 1 149.25 152.25 176.25
2569374 1 161.25 155.25 176.25
2569492 1 155.25 158.25 176.25
2598054 1 161.25 152.25 182.25
2598055 1 164.25 152.25 182.25
2612691 1 152.25 158.25 185.25
2612933 1 158.25 164.25 185.25
2612934 1 161.25 164.25 185.25
2613170 1 149.25 170.25 185.25
2627574 1 161.25 170.25 188.25
2641373 1 158.25 155.25 191.25
2656254 1 161.25 167.25 194.25
2670410 1 149.25 161.25 197.25
2670651 1 152.25 167.25 197.25
2670771 1 152.25 170.25 197.25
2670772 1 155.25 170.25 197.25
2684931 1 152.25 164.25 200.25
2685175 1 164.25 170.25 200.25
2685292 1 155.25 173.25 200.25
2699448 1 143.25 167.25 203.25
2773721 1 122.25 224.25 218.25
2886406 1 137.25 161.25 242.25
2904756 1 107.25 260.25 245.25
2904757 1 110.25 260.25 245.25
2904876 1 107.25 263.25 245.25
2933797 1 110.25 266.25 251.25
