ITEM: TIMESTEP
90000
ITEM: NUMBER OF ATOMS
75
ITEM: BOX BOUNDS pp pp pp
0 360
0 360
0 360
ITEM: ATOMS id type x y z c_myKE c_myPE
2181081 1 247.261 165.517 91.0027 0.104507 -6.42579
2238314 1 224.7 157.815 103.383 0.0304811 -6.11287
2249108 1 203.322 60.0123 107.962 0.0664148 -6.73825
610858 1 169.012 151.512 120.803 0.129963 -6.29614
2340439 1 238.95 193.19 124.574 0.155726 -7.21446
2337665 1 193.893 117.85 126.192 0.224295 -6.16233
2364801 1 247.149 72.902 130.438 0.278814 -6.26575
2382448 1 269.638 159.341 133.892 0.24256 -6.24139
680469 1 208.563 90.9965 139.109 0.228074 -7.4099
695470 1 208.821 90.8643 142.351 0.188529 -7.50449
680830 1 208.798 93.9758 141.987 0.100408 -7.64187
2451907 1 200.6 92.1003 149.893 0.625456 -8.66515
725850 1 275.747 141.537 148.306 0.37102 -6.43591
723551 1 208.477 84.3427 151.553 0.110767 -8.27025
2466068 1 205.43 87.5211 151.563 0.02729 -8.71984
723790 1 208.452 87.6122 151.493 0.0798748 -8.68904
2466305 1 194.252 92.2218 152.897 0.20859 -8.50693
2466307 1 200.467 92.3777 152.947 0.347853 -8.76103
738429 1 203.652 92.2313 153.019 0.243471 -8.82844
2466426 1 197.331 95.4873 153.047 0.182138 -7.93315
2480586 1 197.334 88.9972 156.288 0.157496 -8.63871
2480469 1 205.191 87.6196 154.745 0.0260169 -8.08566
2480705 1 194.125 92.1176 156.186 0.131441 -8.66527
2480706 1 197.365 92.1845 156.079 0.306715 -8.53154
2469541 1 183.01 177.793 154.585 0.0712075 -7.06386
2455141 1 181.432 179.91 154.471 0.16056 0
781146 1 195.851 84.41 161.216 0.0950722 -7.69964
2509026 1 195.529 84.4769 164.413 0.0560462 -7.60881
2608512 1 218.304 46.6568 184.586 0.044507 -6.5661
2695622 1 184.725 64.9843 206.913 0.0309776 -6.70567
453316 1 227.749 172.351 87.7246 0.103222 -6.71412
467363 1 251.708 160.821 92.4067 0.00967347 -6.48419
579430 1 210.258 77.4632 117.729 0.0340097 -5.45997
594431 1 211.857 92.2784 121.233 0.175035 -6.74518
626959 1 237.289 195.05 125.826 0.292035 -6.47388
2355203 1 252.06 202.19 126.152 0.0658159 -6.73215
709390 1 203.842 89.1698 143.578 0.16994 -8.13333
2394430 1 207.18 92.1284 144.023 0.292752 -7.52945
709388 1 200.723 89.142 146.732 0.0280365 -8.64509
694988 1 203.817 89.0668 146.714 0.15759 -8.55493
2408589 1 206.935 89.3628 146.689 0.0576028 -8.37538
2422987 1 200.667 92.4472 146.9 0.279767 -7.8334
2437389 1 203.76 92.2758 146.743 0.0108755 -8.45032
2465950 1 210.183 86.2559 149.957 0.0862712 -7.51903
709510 1 203.754 89.1128 149.953 0.10873 -8.75422
694870 1 206.947 89.2276 149.847 0.239331 -8.73546
2466070 1 210.116 89.2607 149.725 0.148217 -8.30551
738427 1 198.848 93.8804 151.399 0.477315 -8.19389
737214 1 159.378 63.5778 152.925 0.0223585 -5.88192
2480349 1 209.759 83.061 153.255 0.169522 -7.20586
752469 1 206.957 85.7883 153.317 0.141764 -8.20157
738072 1 213.193 86.0147 153.085 0.0226936 -7.50365
752704 1 189.677 90.5833 154.463 0.0427758 -7.65265
752707 1 198.837 90.6807 154.757 0.0480254 -8.57016
752708 1 201.935 90.6446 154.735 0.204635 -8.62977
738189 1 203.738 89.0318 153.134 0.281058 -8.72685
752824 1 189.363 93.8496 154.543 0.114553 -7.45576
752825 1 192.702 93.7443 154.453 0.522374 -7.92161
752827 1 198.961 93.8165 154.667 0.315208 -8.76684
766868 1 202.022 87.4064 157.822 0.11588 -8.08285
767105 1 192.55 90.5563 157.739 0.194994 -8.35881
767106 1 195.634 90.4943 157.911 0.0753588 -8.35716
2480588 1 201.961 90.8353 157.796 0.394237 -8.53586
2494746 1 197.44 86.1674 159.748 0.155152 -7.68822
781506 1 195.633 90.6442 161.059 0.0379859 -7.67232
781507 1 198.822 90.5875 160.91 0.159194 -8.71032
766988 1 200.588 89.0872 159.526 0.157188 -7.99969
767477 1 230.916 99.7312 159.854 0.231938 -6.57958
781147 1 197.388 83.0712 162.994 0.133463 -7.35661
841616 1 163.383 159.823 172.23 0.219726 -6.40028
841734 1 160.959 162.764 173.602 0.153143 -7.31952
841493 1 159.434 159.634 176.834 0.133878 -6.47482
868023 1 188.156 96.1925 181.808 0.365774 -6.81888
2641842 1 119.064 167.297 192.852 0.149501 -7.74462
928362 1 119.585 169.292 194.465 0.27663 -5.88316
