ITEM: TIMESTEP
86525
ITEM: NUMBER OF ATOMS
66
ITEM: BOX BOUNDS pp pp pp
0 360
0 360
0 360
ITEM: ATOMS id type x y z c_myKE c_myPE
2423695 1 164.243 106.81 146.328 0 -6.25578
2468090 1 148.292 139.962 152.694 0 -6.255
2511893 1 156.032 154.768 164.141 0 -6.54371
2525572 1 157.764 138.587 167.492 0 -7.04067
798412 1 152.774 154.704 167.412 0 -6.83627
2570096 1 167.263 178.275 178.34 0 -8.47893
885178 1 167.293 168.939 181.532 0 -8.4664
871135 1 164.142 171.982 181.414 0 -8.39136
885416 1 167.28 172.049 181.548 0 -8.74056
2584496 1 167.276 175.135 181.533 0 -8.83725
899937 1 170.479 178.254 181.608 0 -8.43006
2612930 1 148.285 164.277 184.616 0 -6.29623
870897 1 164.066 168.8 184.678 0 -7.86649
2627577 1 167.244 168.842 184.651 0 -8.06716
2613298 1 170.476 175.209 184.586 0 -8.46033
2641978 1 173.747 175.029 187.968 0 -7.70284
2654337 1 165.506 116.425 194.195 0 -6.25733
2654587 1 200.75 120.786 195.969 0 -6.68911
2654586 1 197.416 123.983 196.148 0 -7.75711
2669104 1 193.124 125.98 197.317 0 -7.42988
2683265 1 195.896 119.453 200.67 0 -7.75536
2683384 1 192.856 122.58 200.638 0 -7.7643
955505 1 195.995 122.635 200.636 0 -8.48984
2683505 1 195.981 125.776 200.655 0 -8.29801
2697786 1 199.346 122.649 203.593 0 -7.40972
2697905 1 196.036 125.791 203.878 0 -7.52344
2685165 1 132.31 168.673 202.521 0 -6.25644
2740159 1 240.787 101.689 215.26 0 -6.25506
1041548 1 202.461 116.434 218.424 0 -6.26597
2813949 1 208.897 148.292 231.203 0 -6.25531
2842367 1 138.721 135.528 237.594 0 -6.26127
2843926 1 135.496 180.259 237.674 0 -7.16903
2858207 1 138.614 177.157 240.838 0 -7.16561
2858327 1 138.765 180.167 240.595 0 -7.70244
2858446 1 135.38 183.335 240.632 0 -7.01879
611567 1 137.129 169.02 122.413 0 -6.25495
2354217 1 169.155 178.517 127.459 0 -6.55257
640857 1 169.024 181.773 130.714 0 -6.82157
2455846 1 133.949 198.982 153.069 0 -6.25523
797574 1 159.637 137.029 165.704 0 -6.91586
2511174 1 159.268 140.349 165.744 0 -6.75321
812325 1 130.756 146.708 167.082 0 -6.25925
856616 1 165.714 173.648 176.736 0 -8.13609
2584616 1 168.936 179.864 176.689 0 -8.1182
871015 1 162.573 173.576 179.875 0 -7.95551
2613296 1 165.7 173.612 179.944 0 -8.69379
856735 1 165.709 176.713 179.969 0 -8.49585
2570336 1 168.849 176.793 179.983 0 -8.77629
2599137 1 168.922 179.821 179.928 0 -8.66285
2598898 1 172.14 179.856 179.948 0 -7.99551
856857 1 169.039 182.878 179.823 0 -7.74752
2584256 1 168.891 170.486 183.082 0 -8.58816
871017 1 168.801 176.698 183.09 0 -8.44993
2613055 1 165.699 167.085 186.1 0 -7.41067
2598777 1 172.083 170.44 186.402 0 -7.92253
2627697 1 168.963 173.609 186.224 0 -8.48079
899699 1 172.091 173.606 186.237 0 -8.46025
899819 1 175.471 176.474 186.148 0 -7.44042
2656378 1 172.079 173.504 189.407 0 -7.63755
2683385 1 197.654 121.079 202.084 0 -8.31717
969906 1 197.624 124.243 202.188 0 -8.34996
970025 1 194.578 127.536 202.3 0 -7.25943
1002051 1 149.887 211.792 208.573 0 -6.24445
1144019 1 172.211 157.527 237.241 0 -6.24993
1130328 1 140.374 178.48 239.141 0 -7.19529
1144847 1 136.957 181.63 242.593 0 -7.42811
