ITEM: TIMESTEP
87710
ITEM: NUMBER OF ATOMS
107
ITEM: BOX BOUNDS pp pp pp
0 360
0 360
0 360
ITEM: ATOMS id type x y z c_myKE c_myPE
2367993 1 92.1345 159.105 132.337 0 -6.25721
2422848 1 141.942 85.7255 143.131 0 -6.2542
2483569 1 145.026 170.542 155.823 0 -6.37199
2495932 1 152.688 114.391 159.087 0 -6.30718
769128 1 138.655 143.305 159.372 0 -8.15372
2497126 1 135.411 146.495 159.106 0 -6.99611
2482848 1 140.068 151.291 157.858 0 -8.2617
2496511 1 87.6837 132.331 161.081 0 -6.28269
768886 1 136.862 138.871 160.748 0 -7.52128
2496888 1 140.224 141.907 161.003 0 -8.53399
2497008 1 140.116 145.12 160.864 0 -8.7317
2497128 1 140.198 148.173 160.893 0 -8.43977
769250 1 143.368 148.193 160.97 0 -8.83734
2497249 1 143.365 151.292 160.958 0 -8.85477
2509959 1 111.28 104.895 164.222 0 -6.25894
2510925 1 133.836 138.488 164.254 0 -7.16114
2525688 1 140.212 141.86 164.083 0 -8.3072
797931 1 143.36 141.881 164.115 0 -8.85205
2525809 1 143.374 145.005 164.1 0 -8.87708
2511530 1 146.516 148.169 164.125 0 -8.87273
798050 1 146.522 151.292 164.128 0 -8.87002
2525448 1 143.276 135.543 167.28 0 -8.03496
826488 1 140.165 138.685 167.18 0 -8.10314
2554130 1 143.343 138.681 167.276 0 -8.80473
2554490 1 143.376 141.806 167.241 0 -8.85183
812211 1 146.52 141.861 167.288 0 -8.86694
2540210 1 146.53 144.987 167.268 0 -8.87051
2525930 1 146.534 148.11 167.262 0 -8.87179
2554730 1 149.669 148.159 167.29 0 -8.87872
812451 1 149.667 151.272 167.284 0 -8.83384
841253 1 152.787 151.338 167.308 0 -8.58372
812571 1 149.729 154.446 167.313 0 -8.49872
826371 1 146.476 135.529 170.495 0 -8.07337
2539848 1 143.365 138.667 170.418 0 -8.56789
2568648 1 146.503 138.679 170.46 0 -8.83282
2554370 1 146.538 141.815 170.418 0 -8.865
855412 1 149.698 145.01 170.45 0 -8.89292
2554851 1 149.648 148.081 170.427 0 -8.59023
841373 1 152.83 151.322 170.405 0 -8.53413
854933 1 149.66 135.604 173.731 0 -7.98583
840770 1 146.517 138.674 173.595 0 -8.55575
840772 1 149.671 138.728 173.651 0 -8.77448
2554491 1 149.706 141.831 173.601 0 -8.82725
2583292 1 152.863 145.034 173.633 0 -8.12665
2569133 1 155.841 151.242 173.607 0 -8.33602
827094 1 158.9 154.602 173.611 0 -7.45101
840891 1 149.649 138.71 176.855 0 -8.08165
859018 1 173.813 240.803 176.991 0 -6.25417
914215 1 161.092 171.918 191.046 0 -6.28735
2641143 1 187.805 146.358 192.908 0 -6.25866
2700656 1 168.65 195.991 207.099 0 -6.98465
2783939 1 173.651 113.32 223.036 0 -6.5431
656324 1 125.637 208.558 131.998 0 -6.82122
670844 1 125.504 211.816 135.252 0 -6.55181
2483691 1 153.001 170.328 154.214 0 -6.32913
754969 1 141.7 152.915 156.219 0 -7.91015
769594 1 95.6244 159.455 157.525 0 -6.82123
782927 1 135.196 133.884 159.318 0 -6.67613
783395 1 96.9099 141.565 160.687 0 -6.27106
2497007 1 137.413 141.502 161.239 0 -8.10776
769249 1 141.822 149.745 159.361 0 -8.54912
769369 1 141.766 152.854 159.348 0 -8.73287
769370 1 144.903 152.914 159.408 0 -8.53484
769489 1 141.806 156.07 159.398 0 -8.11332
783993 1 92.37 159.594 160.778 0 -6.55847
783529 1 141.788 143.472 162.524 0 -8.86196
769129 1 141.778 146.577 162.496 0 -8.86086
2511410 1 144.931 146.615 162.543 0 -8.86494
2497129 1 144.944 149.738 162.547 0 -8.85639
2511649 1 144.944 152.863 162.536 0 -8.78785
2511772 1 148.07 152.917 162.584 0 -8.55903
2497490 1 144.939 156.089 162.55 0 -8.27024
2525568 1 141.82 140.238 165.638 0 -8.6047
797929 1 144.948 143.43 165.69 0 -8.87314
783531 1 144.955 146.552 165.683 0 -8.87584
2511650 1 148.092 149.728 165.704 0 -8.86186
2540450 1 148.113 152.876 165.716 0 -8.81348
2511890 1 148.063 156.091 165.701 0 -8.22484
2540091 1 144.946 140.249 168.846 0 -8.86142
2511411 1 148.107 143.431 168.863 0 -8.87666
812331 1 148.105 146.542 168.846 0 -8.85463
2583771 1 151.263 149.681 168.875 0 -8.64122
2526172 1 154.312 152.961 168.864 0 -8.56406
815104 1 191.365 218.115 169.008 0 -6.25561
826491 1 148.105 140.261 172.025 0 -8.85216
841012 1 148.126 143.38 171.997 0 -8.86282
840892 1 151.261 143.464 172.045 0 -8.8141
855532 1 151.312 146.636 172.085 0 -8.56479
2569253 1 154.266 149.666 171.969 0 -8.17289
2583772 1 154.382 152.874 171.968 0 -8.72601
2569254 1 157.425 152.86 172.072 0 -8.33178
798533 1 154.366 156.084 171.946 0 -8.05763
828412 1 153.091 189.441 172.207 0 -6.2644
2583171 1 151.297 140.352 175.226 0 -8.41396
2568893 1 151.308 143.382 175.19 0 -8.39273
2554853 1 157.45 152.938 175.295 0 -7.87374
2628302 1 186.219 186.218 188.156 0 -6.26064
2700418 1 172.194 192.603 200.956 0 -7.03835
2671857 1 168.818 195.76 200.741 0 -6.75219
2686138 1 173.664 194.581 205.297 0 -7.28438
987178 1 169.225 199.08 204.262 0 -7.81826
2671739 1 173.457 197.706 205.48 0 -6.94556
1001458 1 168.904 199.051 207.34 0 -7.0846
2741943 1 189.405 146.69 216.845 0 -6.25627
1041539 1 175.423 111.741 221.266 0 -6.82862
1101071 1 213.695 165.828 230.857 0 -6.25547
1130098 1 170.271 172.221 240.457 0 -6.25455
