ITEM: TIMESTEP
87000
ITEM: NUMBER OF ATOMS
107
ITEM: BOX BOUNDS pp pp pp
0 360
0 360
0 360
ITEM: ATOMS id type x y z
682968 1 141.75 153.75 141.75
754237 1 108.75 135.75 156.75
784015 1 162.75 159.75 162.75
796846 1 135.75 120.75 165.75
825883 1 126.75 126.75 171.75
826123 1 126.75 132.75 171.75
826124 1 129.75 132.75 171.75
826125 1 132.75 132.75 171.75
853489 1 144.75 96.75 177.75
854086 1 135.75 111.75 177.75
854441 1 120.75 120.75 177.75
854687 1 138.75 126.75 177.75
868971 1 150.75 123.75 180.75
883492 1 153.75 126.75 183.75
883850 1 147.75 135.75 183.75
899580 1 177.75 168.75 186.75
913620 1 177.75 159.75 189.75
926694 1 159.75 126.75 192.75
927413 1 156.75 144.75 192.75
928135 1 162.75 162.75 192.75
941815 1 162.75 144.75 195.75
942415 1 162.75 159.75 195.75
956215 1 162.75 144.75 198.75
956577 1 168.75 153.75 198.75
956936 1 165.75 162.75 198.75
956937 1 168.75 162.75 198.75
957301 1 180.75 171.75 198.75
970017 1 168.75 129.75 201.75
970736 1 165.75 147.75 201.75
970861 1 180.75 150.75 201.75
970976 1 165.75 153.75 201.75
970977 1 168.75 153.75 201.75
970978 1 171.75 153.75 201.75
971097 1 168.75 156.75 201.75
971098 1 171.75 156.75 201.75
984895 1 162.75 141.75 204.75
985019 1 174.75 144.75 204.75
985736 1 165.75 162.75 204.75
985739 1 174.75 162.75 204.75
985976 1 165.75 168.75 204.75
986218 1 171.75 174.75 204.75
986219 1 174.75 174.75 204.75
987414 1 159.75 204.75 204.75
999416 1 165.75 144.75 207.75
999776 1 165.75 153.75 207.75
999781 1 180.75 153.75 207.75
1000136 1 165.75 162.75 207.75
1000618 1 171.75 174.75 207.75
1014296 1 165.75 156.75 210.75
1014299 1 174.75 156.75 210.75
1027618 1 171.75 129.75 213.75
1042975 1 162.75 153.75 216.75
1043930 1 147.75 177.75 216.75
1056178 1 171.75 123.75 219.75
1084616 1 165.75 114.75 225.75
2427168 1 143.25 200.25 146.25
2482122 1 125.25 134.25 158.25
2525316 1 107.25 134.25 167.25
2525321 1 122.25 134.25 167.25
2525672 1 95.25 143.25 167.25
2539127 1 140.25 119.25 170.25
2539358 1 113.25 125.25 170.25
2539602 1 125.25 131.25 170.25
2554122 1 125.25 134.25 173.25
2556055 1 164.25 182.25 173.25
2568404 1 131.25 131.25 176.25
2582689 1 146.25 128.25 179.25
2583157 1 110.25 140.25 179.25
2597332 1 155.25 134.25 182.25
2598896 1 167.25 173.25 182.25
2598899 1 176.25 173.25 182.25
2640772 1 155.25 140.25 191.25
2641133 1 158.25 149.25 191.25
2641497 1 170.25 158.25 191.25
2655897 1 170.25 158.25 194.25
2656017 1 170.25 161.25 194.25
2656376 1 167.25 170.25 194.25
2669455 1 164.25 137.25 197.25
2670776 1 167.25 170.25 197.25
2670898 1 173.25 173.25 197.25
2682895 1 164.25 113.25 200.25
2684576 1 167.25 155.25 200.25
2684577 1 170.25 155.25 200.25
2699212 1 155.25 161.25 203.25
2699463 1 188.25 167.25 203.25
2699822 1 185.25 176.25 203.25
2712774 1 161.25 140.25 206.25
2712894 1 161.25 143.25 206.25
2713255 1 164.25 152.25 206.25
2713256 1 167.25 152.25 206.25
2713259 1 176.25 152.25 206.25
2713495 1 164.25 158.25 206.25
2713496 1 167.25 158.25 206.25
2713978 1 173.25 170.25 206.25
2714096 1 167.25 173.25 206.25
2727533 1 158.25 149.25 209.25
2727655 1 164.25 152.25 209.25
2727656 1 167.25 152.25 209.25
2727658 1 173.25 152.25 209.25
2727659 1 176.25 152.25 209.25
2728131 1 152.25 164.25 209.25
2728255 1 164.25 167.25 209.25
2728499 1 176.25 173.25 209.25
2728619 1 176.25 176.25 209.25
2742415 1 164.25 161.25 212.25
2756098 1 173.25 143.25 215.25
2829051 1 152.25 167.25 230.25
