ITEM: TIMESTEP
90595
ITEM: NUMBER OF ATOMS
50
ITEM: BOX BOUNDS pp pp pp
0 360
0 360
0 360
ITEM: ATOMS id type x y z
699783 1 186.75 213.75 144.75
699903 1 186.75 216.75 144.75
699904 1 189.75 216.75 144.75
709855 1 162.75 105.75 147.75
710824 1 189.75 129.75 147.75
714184 1 189.75 213.75 147.75
714185 1 192.75 213.75 147.75
724256 1 165.75 105.75 150.75
728464 1 189.75 210.75 150.75
728574 1 159.75 213.75 150.75
728584 1 189.75 213.75 150.75
728695 1 162.75 216.75 150.75
754990 1 207.75 153.75 156.75
755111 1 210.75 156.75 156.75
799507 1 198.75 186.75 165.75
799520 1 237.75 186.75 165.75
927195 1 222.75 138.75 192.75
927314 1 219.75 141.75 192.75
941596 1 225.75 138.75 195.75
941715 1 222.75 141.75 195.75
1001461 1 180.75 195.75 207.75
1087509 1 204.75 186.75 225.75
1115474 1 219.75 165.75 231.75
1129873 1 216.75 165.75 234.75
2284858 1 173.25 242.25 116.25
2398983 1 188.25 215.25 140.25
2413382 1 185.25 215.25 143.25
2413503 1 188.25 218.25 143.25
2427663 1 188.25 212.25 146.25
2427783 1 188.25 215.25 146.25
2427784 1 191.25 215.25 146.25
2438824 1 191.25 131.25 149.25
2438945 1 194.25 134.25 149.25
2442063 1 188.25 212.25 149.25
2443749 1 206.25 254.25 149.25
2456575 1 164.25 215.25 152.25
2466413 1 158.25 101.25 155.25
2483594 1 221.25 170.25 158.25
2485753 1 218.25 224.25 158.25
2500273 1 218.25 227.25 161.25
2513106 1 197.25 188.25 164.25
2527506 1 197.25 188.25 167.25
2570822 1 185.25 191.25 176.25
2655314 1 221.25 143.25 194.25
2656128 1 143.25 164.25 194.25
2657958 1 233.25 209.25 194.25
2672478 1 233.25 212.25 197.25
2713873 1 218.25 167.25 206.25
2815389 1 206.25 185.25 227.25
2829669 1 206.25 182.25 230.25
