ITEM: TIMESTEP
91000
ITEM: NUMBER OF ATOMS
87
ITEM: BOX BOUNDS pp pp pp
0 360
0 360
0 360
ITEM: ATOMS id type x y z
465185 1 192.75 108.75 96.75
479465 1 192.75 105.75 99.75
624190 1 207.75 123.75 129.75
624779 1 174.75 138.75 129.75
624901 1 180.75 141.75 129.75
639299 1 174.75 141.75 132.75
729310 1 207.75 231.75 150.75
729429 1 204.75 234.75 150.75
741060 1 177.75 165.75 153.75
743710 1 207.75 231.75 153.75
743830 1 207.75 234.75 153.75
755459 1 174.75 165.75 156.75
755580 1 177.75 168.75 156.75
757497 1 168.75 216.75 156.75
769860 1 177.75 165.75 159.75
772149 1 204.75 222.75 159.75
772269 1 204.75 225.75 159.75
772389 1 204.75 228.75 159.75
774684 1 249.75 285.75 159.75
786548 1 201.75 222.75 162.75
786669 1 204.75 225.75 162.75
786789 1 204.75 228.75 162.75
800828 1 201.75 219.75 165.75
800949 1 204.75 222.75 165.75
801068 1 201.75 225.75 165.75
814265 1 192.75 195.75 168.75
814385 1 192.75 198.75 168.75
814748 1 201.75 207.75 168.75
814867 1 198.75 210.75 168.75
814868 1 201.75 210.75 168.75
827952 1 213.75 177.75 171.75
828664 1 189.75 195.75 171.75
861321 1 240.75 291.75 177.75
874880 1 237.75 270.75 180.75
887230 1 207.75 219.75 183.75
904037 1 228.75 279.75 186.75
918317 1 228.75 276.75 189.75
973514 1 219.75 216.75 201.75
973633 1 216.75 219.75 201.75
1019238 1 231.75 279.75 210.75
1019477 1 228.75 285.75 210.75
1033637 1 228.75 279.75 213.75
1033758 1 231.75 282.75 213.75
1047552 1 213.75 267.75 216.75
1047671 1 210.75 270.75 216.75
2020746 1 197.25 119.25 62.25
2237105 1 194.25 128.25 107.25
2251504 1 191.25 128.25 110.25
2251625 1 194.25 131.25 110.25
2265048 1 143.25 107.25 113.25
2280165 1 134.25 125.25 116.25
2280284 1 131.25 128.25 116.25
2299627 1 200.25 251.25 119.25
2338258 1 173.25 137.25 128.25
2431047 1 260.25 296.25 146.25
2439892 1 155.25 158.25 149.25
2454293 1 158.25 158.25 152.25
2454779 1 176.25 170.25 152.25
2458382 1 185.25 260.25 152.25
2468940 1 179.25 164.25 155.25
2471589 1 206.25 230.25 155.25
2472662 1 185.25 257.25 155.25
2483339 1 176.25 164.25 158.25
2485509 1 206.25 218.25 158.25
2485869 1 206.25 227.25 158.25
2485990 1 209.25 230.25 158.25
2487184 1 191.25 260.25 158.25
2500028 1 203.25 221.25 161.25
2500029 1 206.25 221.25 161.25
2513827 1 200.25 206.25 164.25
2514308 1 203.25 218.25 164.25
2514429 1 206.25 221.25 164.25
2514668 1 203.25 227.25 164.25
2527864 1 191.25 197.25 167.25
2527983 1 188.25 200.25 167.25
2528708 1 203.25 218.25 167.25
2542263 1 188.25 197.25 170.25
2574079 1 236.25 272.25 176.25
2588359 1 236.25 269.25 179.25
2588480 1 239.25 272.25 179.25
2617757 1 230.25 284.25 185.25
2632037 1 230.25 281.25 188.25
2632278 1 233.25 287.25 188.25
2646317 1 230.25 278.25 191.25
2646436 1 227.25 281.25 191.25
2646558 1 233.25 284.25 191.25
2646679 1 236.25 287.25 191.25
