ITEM: TIMESTEP
92000
ITEM: NUMBER OF ATOMS
73
ITEM: BOX BOUNDS pp pp pp
0 360
0 360
0 360
ITEM: ATOMS id type x y z c_myKE c_myPE
2453566 1 133.8 137.033 149.475 0.200077 -5.86655
2453213 1 158.147 127.418 151.225 0.194527 -7.482
2540352 1 218.47 146.495 170.772 0.37385 -5.95854
2571169 1 145.067 202.313 174.708 0.00192949 -6.35981
2585688 1 142.328 203.815 177.871 0.0269585 -6.78643
2613296 1 167.782 171.91 186.291 0.0895799 -6.83396
2641986 1 199.3 170.849 192.653 0.189427 -6.84597
2656387 1 202.658 170.848 195.946 0.372837 -7.43773
2685881 1 117.649 190.2 202.52 0.0412966 -6.23245
2785252 1 152.628 149.775 224.652 0.0472421 -7.26168
2785253 1 155.799 149.593 224.6 0.158819 -7.61878
2785373 1 155.742 152.47 224.461 0.179667 -7.84349
2787780 1 178.099 216.847 224.544 0.00393622 -6.38422
1100459 1 171.68 144.711 229.582 0.0479901 -7.24108
2815263 1 189.553 181.698 229.261 0.170539 -6.49354
2815373 1 156.034 184.6 229.081 0.205069 -6.4599
2813000 1 244.052 120.909 231.008 0.0963942 -6.68662
2813818 1 171.844 144.636 232.533 0.174559 -8.15429
1129136 1 169.062 145.049 235.392 0.235254 -7.73012
1128192 1 213.623 120.657 238.409 0.143821 -6.57533
1143299 1 170.512 139.337 238.74 0.120216 -7.55581
1114619 1 172.083 145.289 239.09 0.0239595 -7.41158
2842619 1 176.648 148.312 238.448 0.274187 -8.08922
1143778 1 174.248 146.471 242.37 0.209655 -7.77429
1143538 1 170.833 150.11 242.137 0.111457 -8.01952
1129377 1 169.019 151.976 242.183 0.21147 -7.61374
2857017 1 170.646 144.862 244.426 0.0383626 -7.9475
2888090 1 148.267 205.67 246.782 0.233192 -6.70041
1229696 1 164.26 139.985 257.65 0.137955 -6.54598
2958167 1 138.859 152.663 259.782 0.10446 -5.89259
2928892 1 156.074 143.408 264.317 0.125205 -7.45697
1215173 1 160.949 141.603 263.25 0.341183 -7.10505
1229934 1 159.169 143.369 267.414 0.143152 -7.74668
3101559 1 114.141 136.697 292.851 0.224838 -7.43631
1403072 1 89.063 154.728 301.28 0.535706 -6.70062
3217238 1 109.652 151.436 320.416 0.30059 -6.13007
1545512 1 88.9716 116.503 327.892 0.0280841 -6.9765
3244951 1 84.3495 120.815 326.599 0.0416841 -7.48547
725333 1 156.632 127.687 149.15 0.358184 -6.98999
926689 1 143.773 124.773 194.552 0.251817 -6.62839
957309 1 207.302 172.286 200.56 0.212124 -6.82278
2728495 1 159.737 169.008 211.801 0.0877271 -5.93845
1057372 1 151.135 150.969 223.011 0.038718 -7.18476
1057493 1 154.094 154.303 222.928 0.0814397 -7.59729
1087384 1 191.544 182.978 227.652 0.0293394 -6.67486
2799540 1 175.896 144.781 230.871 0.215256 -7.61986
2813819 1 176.839 147.658 231.097 0.385886 -7.77458
1099748 1 202.236 128.523 232.555 0.139008 -6.18094
1100220 1 173.475 140.079 233.254 0.0315208 -7.23181
2813939 1 173.817 146.64 234.019 0.201163 -8.2421
2813700 1 176.476 145.978 233.165 0.154071 -7.8533
1100100 1 174.277 141.143 237.103 0.107895 -7.4407
2856898 1 173.854 143.718 237.352 0.178591 -7.90763
2857139 1 171.243 144.037 236.759 0.0468225 -7.76847
2828096 1 165.321 146.749 237.051 0.0519797 -8.00692
1129019 1 173.152 146.099 236.525 0.238106 -7.76848
1129138 1 174.797 147.962 236.459 0.0711447 -8.16052
1143537 1 170.49 141.156 240.9 0.140392 -8.10365
2842736 1 165.428 150.131 240.094 0.0927287 -6.7453
2871418 1 170.567 143.11 242.596 0.335649 -7.79395
2871296 1 165.616 147.192 243.759 0.0257032 -6.86205
1244335 1 157.904 144.977 262.634 0.119004 -6.78562
1257517 1 105.725 112.958 265.983 0.0824244 -6.61662
2957455 1 160.489 141.498 265.867 0.204206 -7.5289
2972213 1 160.966 144.571 265.878 0.0957356 -8.23514
3044446 1 140.096 151.307 281.888 0.420269 -6.48954
3101563 1 114.898 134.195 293.38 0.13465 -6.79784
1488286 1 133.905 124.56 316.654 0.198783 -6.0219
1516833 1 90.7051 117.941 323.359 0.29877 -6.41365
1516952 1 87.3699 121.135 323.281 0.0199626 -7.58893
1530749 1 80.6429 105.221 328.531 0.121502 -6.28781
3260209 1 147.819 144.925 329.098 0.246971 -7.1377
1574202 1 119.182 109.287 338.136 0.138231 -6.78283
