ITEM: TIMESTEP
86260
ITEM: NUMBER OF ATOMS
32
ITEM: BOX BOUNDS pp pp pp
0 360
0 360
0 360
ITEM: ATOMS id type x y z
768785 1 192.75 138.75 159.75
783663 1 186.75 150.75 162.75
797566 1 135.75 138.75 165.75
827574 1 159.75 168.75 171.75
842563 1 126.75 183.75 174.75
856966 1 135.75 183.75 177.75
857086 1 135.75 186.75 177.75
871358 1 111.75 183.75 180.75
871604 1 129.75 189.75 180.75
872328 1 141.75 207.75 180.75
885886 1 135.75 186.75 183.75
900279 1 114.75 186.75 186.75
901114 1 99.75 207.75 186.75
915763 1 126.75 213.75 189.75
929078 1 111.75 186.75 192.75
972157 1 108.75 183.75 201.75
973114 1 99.75 207.75 201.75
2440245 1 134.25 167.25 149.25
2454418 1 173.25 161.25 152.25
2468219 1 176.25 146.25 155.25
2497148 1 203.25 149.25 161.25
2510939 1 176.25 134.25 164.25
2512245 1 134.25 167.25 164.25
2512968 1 143.25 185.25 164.25
2542369 1 146.25 200.25 170.25
2570562 1 125.25 185.25 176.25
2584718 1 113.25 179.25 179.25
2584966 1 137.25 185.25 179.25
2613761 1 122.25 185.25 185.25
2614118 1 113.25 194.25 185.25
2628763 1 128.25 200.25 188.25
2657079 1 116.25 188.25 194.25
