ITEM: TIMESTEP
86000
ITEM: NUMBER OF ATOMS
123
ITEM: BOX BOUNDS pp pp pp
0 360
0 360
0 360
ITEM: ATOMS id type x y z
610873 1 216.75 150.75 126.75
611335 1 162.75 162.75 126.75
625973 1 156.75 168.75 129.75
640247 1 138.75 165.75 132.75
654533 1 156.75 162.75 135.75
668471 1 210.75 150.75 138.75
669054 1 159.75 165.75 138.75
669170 1 147.75 168.75 138.75
671214 1 159.75 219.75 138.75
682750 1 207.75 147.75 141.75
683226 1 195.75 159.75 141.75
697504 1 189.75 156.75 144.75
698102 1 183.75 171.75 144.75
698573 1 156.75 183.75 144.75
711428 1 201.75 144.75 147.75
711898 1 171.75 156.75 147.75
711913 1 216.75 156.75 147.75
712017 1 168.75 159.75 147.75
712375 1 162.75 168.75 147.75
712492 1 153.75 171.75 147.75
712495 1 162.75 171.75 147.75
712500 1 177.75 171.75 147.75
712847 1 138.75 180.75 147.75
725957 1 228.75 147.75 150.75
726772 1 153.75 168.75 150.75
726892 1 153.75 171.75 150.75
727011 1 150.75 174.75 150.75
727012 1 153.75 174.75 150.75
727131 1 150.75 177.75 150.75
727849 1 144.75 195.75 150.75
741172 1 153.75 168.75 153.75
741290 1 147.75 171.75 153.75
741291 1 150.75 171.75 153.75
741292 1 153.75 171.75 153.75
741411 1 150.75 174.75 153.75
741531 1 150.75 177.75 153.75
741532 1 153.75 177.75 153.75
754728 1 141.75 147.75 156.75
755572 1 153.75 168.75 156.75
755811 1 150.75 174.75 156.75
755816 1 165.75 174.75 156.75
755931 1 150.75 177.75 156.75
755932 1 153.75 177.75 156.75
755936 1 165.75 177.75 156.75
769875 1 222.75 165.75 159.75
769972 1 153.75 168.75 159.75
770092 1 153.75 171.75 159.75
770217 1 168.75 174.75 159.75
770223 1 186.75 174.75 159.75
770224 1 189.75 174.75 159.75
770806 1 135.75 189.75 159.75
783799 1 234.75 153.75 162.75
784372 1 153.75 168.75 162.75
784629 1 204.75 174.75 162.75
798652 1 153.75 165.75 165.75
798653 1 156.75 165.75 165.75
798894 1 159.75 171.75 165.75
799132 1 153.75 177.75 165.75
813412 1 153.75 174.75 168.75
813773 1 156.75 183.75 168.75
827929 1 144.75 177.75 171.75
828177 1 168.75 183.75 171.75
842335 1 162.75 177.75 174.75
2324467 1 200.25 152.25 125.25
2324707 1 200.25 158.25 125.25
2367433 1 218.25 146.25 134.25
2367672 1 215.25 152.25 134.25
2370522 1 125.25 224.25 134.25
2381707 1 200.25 143.25 137.25
2382074 1 221.25 152.25 137.25
2382184 1 191.25 155.25 137.25
2382775 1 164.25 170.25 137.25
2396234 1 221.25 146.25 140.25
2396474 1 221.25 152.25 140.25
2410986 1 197.25 155.25 143.25
2411569 1 146.25 170.25 143.25
2411691 1 152.25 173.25 143.25
2426571 1 152.25 185.25 146.25
2440014 1 161.25 161.25 149.25
2440371 1 152.25 170.25 149.25
2440491 1 152.25 173.25 149.25
2440611 1 152.25 176.25 149.25
2440612 1 155.25 176.25 149.25
2440614 1 161.25 176.25 149.25
2454530 1 149.25 164.25 152.25
2454648 1 143.25 167.25 152.25
2454771 1 152.25 170.25 152.25
2454891 1 152.25 173.25 152.25
2455011 1 152.25 176.25 152.25
2469171 1 152.25 170.25 155.25
2469290 1 149.25 173.25 155.25
2469291 1 152.25 173.25 155.25
2469297 1 170.25 173.25 155.25
2469411 1 152.25 176.25 155.25
2469530 1 149.25 179.25 155.25
2469531 1 152.25 179.25 155.25
2470370 1 149.25 200.25 155.25
2483337 1 170.25 164.25 158.25
2483571 1 152.25 170.25 158.25
2483691 1 152.25 173.25 158.25
2483811 1 152.25 176.25 158.25
2483812 1 155.25 176.25 158.25
2483930 1 149.25 179.25 158.25
2483931 1 152.25 179.25 158.25
2483932 1 155.25 179.25 158.25
2497851 1 152.25 167.25 161.25
2497852 1 155.25 167.25 161.25
2512013 1 158.25 161.25 164.25
2512133 1 158.25 164.25 164.25
2512491 1 152.25 173.25 164.25
2512492 1 155.25 173.25 164.25
2512605 1 134.25 176.25 164.25
2526769 1 146.25 170.25 167.25
2526771 1 152.25 170.25 167.25
2526775 1 164.25 170.25 167.25
2527024 1 191.25 176.25 167.25
2555448 1 143.25 167.25 173.25
2555934 1 161.25 179.25 173.25
2555936 1 167.25 179.25 173.25
2570215 1 164.25 176.25 176.25
2584615 1 164.25 176.25 179.25
2599011 1 152.25 176.25 182.25
2599250 1 149.25 182.25 182.25
