ITEM: TIMESTEP
96000
ITEM: NUMBER OF ATOMS
91
ITEM: BOX BOUNDS pp pp pp
0 360
0 360
0 360
ITEM: ATOMS id type x y z
696888 1 141.75 141.75 144.75
869566 1 135.75 138.75 180.75
871015 1 162.75 174.75 180.75
888890 1 147.75 261.75 183.75
889010 1 147.75 264.75 183.75
890814 1 159.75 309.75 183.75
891054 1 159.75 315.75 183.75
899092 1 153.75 156.75 186.75
904132 1 153.75 282.75 186.75
913133 1 156.75 147.75 189.75
913370 1 147.75 153.75 189.75
913490 1 147.75 156.75 189.75
913614 1 159.75 159.75 189.75
914811 1 150.75 189.75 189.75
929572 1 153.75 198.75 192.75
944213 1 156.75 204.75 195.75
960774 1 159.75 258.75 198.75
973370 1 147.75 213.75 201.75
973491 1 150.75 216.75 201.75
976740 1 177.75 297.75 201.75
989454 1 159.75 255.75 204.75
990417 1 168.75 279.75 204.75
1003371 1 150.75 243.75 207.75
1020057 1 168.75 300.75 210.75
1031940 1 177.75 237.75 213.75
1034102 1 183.75 291.75 213.75
1046337 1 168.75 237.75 216.75
1062775 1 162.75 288.75 219.75
1090011 1 150.75 249.75 225.75
1121081 1 120.75 306.75 231.75
1133694 1 159.75 261.75 234.75
1147732 1 153.75 252.75 237.75
1148327 1 138.75 267.75 237.75
1162490 1 147.75 261.75 240.75
1163090 1 147.75 276.75 240.75
1177011 1 150.75 264.75 243.75
1177975 1 162.75 288.75 243.75
1180727 1 138.75 357.75 243.75
1195127 1 138.75 357.75 246.75
1206170 1 147.75 273.75 249.75
1206171 1 150.75 273.75 249.75
1220211 1 150.75 264.75 252.75
1223442 1 123.75 345.75 252.75
1238083 1 126.75 351.75 255.75
1238323 1 126.75 357.75 255.75
1249252 1 153.75 270.75 258.75
1252487 1 138.75 351.75 258.75
1252604 1 129.75 354.75 258.75
1252607 1 138.75 354.75 258.75
1278527 1 138.75 282.75 264.75
1381482 1 123.75 336.75 285.75
2453570 1 149.25 140.25 152.25
2468329 1 146.25 149.25 155.25
2583652 1 155.25 152.25 179.25
2616529 1 146.25 254.25 185.25
2619057 1 170.25 317.25 185.25
2633336 1 167.25 314.25 188.25
2641248 1 143.25 152.25 191.25
2655892 1 155.25 158.25 194.25
2656007 1 140.25 161.25 194.25
2656129 1 146.25 164.25 194.25
2672449 1 146.25 212.25 197.25
2674492 1 155.25 263.25 197.25
2684454 1 161.25 152.25 200.25
2702569 1 146.25 245.25 203.25
2703413 1 158.25 266.25 203.25
2704134 1 161.25 284.25 203.25
2713847 1 140.25 167.25 206.25
2728008 1 143.25 161.25 209.25
2746012 1 155.25 251.25 212.25
2747089 1 146.25 278.25 212.25
2748178 1 173.25 305.25 212.25
2761855 1 164.25 287.25 215.25
2774576 1 167.25 245.25 218.25
2774696 1 167.25 248.25 218.25
2775899 1 176.25 278.25 218.25
2776741 1 182.25 299.25 218.25
2817773 1 158.25 245.25 227.25
2891213 1 158.25 281.25 242.25
2891330 1 149.25 284.25 242.25
2894204 1 131.25 356.25 242.25
2908125 1 134.25 344.25 245.25
2922884 1 131.25 353.25 248.25
2923007 1 140.25 356.25 248.25
2951806 1 137.25 356.25 254.25
2962847 1 140.25 272.25 257.25
2977730 1 149.25 284.25 260.25
2980363 1 128.25 350.25 260.25
2980365 1 134.25 350.25 260.25
2992006 1 137.25 281.25 263.25
3080560 1 119.25 335.25 281.25
