ITEM: TIMESTEP
87317
ITEM: NUMBER OF ATOMS
49
ITEM: BOX BOUNDS pp pp pp
0 360
0 360
0 360
ITEM: ATOMS id type x y z
727128 1 141.75 177.75 150.75
813191 1 210.75 168.75 168.75
898147 1 198.75 132.75 186.75
1014547 1 198.75 162.75 210.75
1028826 1 195.75 159.75 213.75
1028943 1 186.75 162.75 213.75
1028944 1 189.75 162.75 213.75
1028945 1 192.75 162.75 213.75
1028946 1 195.75 162.75 213.75
1028947 1 198.75 162.75 213.75
1028948 1 201.75 162.75 213.75
1028949 1 204.75 162.75 213.75
1043104 1 189.75 156.75 216.75
1043105 1 192.75 156.75 216.75
1043107 1 198.75 156.75 216.75
1043109 1 204.75 156.75 216.75
1043116 1 225.75 156.75 216.75
1043225 1 192.75 159.75 216.75
1043228 1 201.75 159.75 216.75
1043229 1 204.75 159.75 216.75
1043230 1 207.75 159.75 216.75
1115587 1 198.75 168.75 231.75
1128787 1 198.75 138.75 234.75
1129986 1 195.75 168.75 234.75
1130107 1 198.75 171.75 234.75
1158782 1 183.75 168.75 240.75
2295528 1 143.25 149.25 119.25
2424635 1 104.25 137.25 146.25
2713749 1 206.25 164.25 206.25
2742306 1 197.25 158.25 212.25
2742425 1 194.25 161.25 212.25
2742542 1 185.25 164.25 212.25
2742543 1 188.25 164.25 212.25
2742547 1 200.25 164.25 212.25
2742548 1 203.25 164.25 212.25
2756585 1 194.25 155.25 215.25
2756703 1 188.25 158.25 215.25
2756705 1 194.25 158.25 215.25
2756706 1 197.25 158.25 215.25
2756707 1 200.25 158.25 215.25
2756823 1 188.25 161.25 215.25
2756824 1 191.25 161.25 215.25
2756825 1 194.25 161.25 215.25
2756826 1 197.25 161.25 215.25
2756827 1 200.25 161.25 215.25
2756828 1 203.25 161.25 215.25
2756829 1 206.25 161.25 215.25
2770986 1 197.25 155.25 218.25
2843587 1 200.25 170.25 233.25
