ITEM: TIMESTEP
88000
ITEM: NUMBER OF ATOMS
36
ITEM: BOX BOUNDS pp pp pp
0 360
0 360
0 360
ITEM: ATOMS id type x y z
668457 1 168.75 150.75 138.75
683449 1 144.75 165.75 141.75
697020 1 177.75 144.75 144.75
725945 1 192.75 147.75 150.75
740101 1 180.75 141.75 153.75
753540 1 177.75 117.75 156.75
754377 1 168.75 138.75 156.75
754978 1 171.75 153.75 156.75
755346 1 195.75 162.75 156.75
769013 1 156.75 144.75 159.75
769019 1 174.75 144.75 159.75
782209 1 144.75 114.75 162.75
782819 1 174.75 129.75 162.75
783766 1 135.75 153.75 162.75
812100 1 177.75 141.75 168.75
812342 1 183.75 147.75 168.75
825899 1 174.75 126.75 171.75
869335 1 162.75 132.75 180.75
2381945 1 194.25 149.25 137.25
2439305 1 194.25 143.25 149.25
2439903 1 188.25 158.25 149.25
2453219 1 176.25 131.25 152.25
2453582 1 185.25 140.25 152.25
2453700 1 179.25 143.25 152.25
2482619 1 176.25 146.25 158.25
2482732 1 155.25 149.25 158.25
2482733 1 158.25 149.25 158.25
2497615 1 164.25 161.25 161.25
2511297 1 170.25 143.25 164.25
2511417 1 170.25 146.25 164.25
2511418 1 173.25 146.25 164.25
2525818 1 173.25 146.25 167.25
2526056 1 167.25 152.25 167.25
2554018 1 173.25 131.25 173.25
2555813 1 158.25 176.25 173.25
2641016 1 167.25 146.25 191.25
