ITEM: TIMESTEP
90251
ITEM: NUMBER OF ATOMS
74
ITEM: BOX BOUNDS pp pp pp
0 360
0 360
0 360
ITEM: ATOMS id type x y z
567795 1 222.75 153.75 117.75
567915 1 222.75 156.75 117.75
625873 1 216.75 165.75 129.75
682873 1 216.75 150.75 141.75
682993 1 216.75 153.75 141.75
711773 1 156.75 153.75 147.75
725941 1 180.75 147.75 150.75
726175 1 162.75 153.75 150.75
770219 1 174.75 174.75 159.75
770583 1 186.75 183.75 159.75
785216 1 165.75 189.75 162.75
785220 1 177.75 189.75 162.75
799379 1 174.75 183.75 165.75
844860 1 177.75 240.75 174.75
872708 1 201.75 216.75 180.75
916386 1 195.75 228.75 189.75
916627 1 198.75 234.75 189.75
928740 1 177.75 177.75 192.75
957549 1 204.75 177.75 198.75
971821 1 180.75 174.75 201.75
972424 1 189.75 189.75 201.75
1003264 1 189.75 240.75 207.75
1015027 1 198.75 174.75 210.75
1030744 1 189.75 207.75 213.75
1045395 1 222.75 213.75 216.75
1060396 1 225.75 228.75 219.75
1089076 1 225.75 225.75 225.75
1089920 1 237.75 246.75 225.75
1120163 1 246.75 282.75 231.75
1147518 1 231.75 246.75 237.75
1190842 1 243.75 249.75 246.75
1190962 1 243.75 252.75 246.75
1205121 1 240.75 246.75 249.75
1205237 1 228.75 249.75 249.75
1304355 1 222.75 207.75 270.75
1304718 1 231.75 216.75 270.75
2338980 1 179.25 155.25 128.25
2338991 1 212.25 155.25 128.25
2382196 1 227.25 155.25 137.25
2396834 1 221.25 161.25 140.25
2396957 1 230.25 164.25 140.25
2411115 1 224.25 158.25 143.25
2425009 1 146.25 146.25 146.25
2425139 1 176.25 149.25 146.25
2439417 1 170.25 146.25 149.25
2439539 1 176.25 149.25 149.25
2455498 1 173.25 188.25 152.25
2498099 1 176.25 173.25 161.25
2498578 1 173.25 185.25 161.25
2515376 1 167.25 245.25 164.25
2529660 1 179.25 242.25 167.25
2543229 1 206.25 221.25 170.25
2586912 1 215.25 233.25 179.25
2600589 1 206.25 215.25 182.25
2601421 1 182.25 236.25 182.25
2615582 1 185.25 230.25 185.25
2629390 1 209.25 215.25 188.25
2629510 1 209.25 218.25 188.25
2629982 1 185.25 230.25 188.25
2644154 1 221.25 224.25 191.25
2657233 1 218.25 191.25 194.25
2657956 1 227.25 209.25 194.25
2658427 1 200.25 221.25 194.25
2671505 1 194.25 188.25 197.25
2685066 1 197.25 167.25 200.25
2744596 1 227.25 215.25 212.25
2846001 1 242.25 230.25 233.25
2847802 1 245.25 275.25 233.25
2859797 1 230.25 215.25 236.25
2860041 1 242.25 221.25 236.25
2890159 1 236.25 254.25 242.25
2904080 1 239.25 242.25 245.25
2918357 1 230.25 239.25 248.25
2918840 1 239.25 251.25 248.25
