ITEM: TIMESTEP
76000
ITEM: NUMBER OF ATOMS
30
ITEM: BOX BOUNDS pp pp pp
0 240
0 240
0 240
ITEM: ATOMS id type x y z
175881 1 120.75 114.75 81.75
188919 1 114.75 123.75 87.75
202674 1 99.75 159.75 93.75
215154 1 99.75 147.75 99.75
220440 1 117.75 105.75 102.75
221078 1 111.75 129.75 102.75
233316 1 105.75 108.75 108.75
233802 1 123.75 126.75 108.75
246913 1 96.75 138.75 114.75
247794 1 99.75 171.75 114.75
279554 1 99.75 162.75 129.75
702512 1 95.25 185.25 89.25
713484 1 131.25 116.25 95.25
713720 1 119.25 125.25 95.25
719393 1 98.25 98.25 98.25
719559 1 116.25 104.25 98.25
719642 1 125.25 107.25 98.25
720674 1 101.25 146.25 98.25
726040 1 119.25 107.25 101.25
727475 1 104.25 161.25 101.25
727795 1 104.25 173.25 101.25
732517 1 110.25 110.25 104.25
738760 1 119.25 104.25 107.25
739000 1 119.25 113.25 107.25
739163 1 128.25 119.25 107.25
740117 1 110.25 155.25 107.25
744998 1 113.25 98.25 110.25
746348 1 83.25 149.25 110.25
759231 1 92.25 152.25 116.25
759232 1 95.25 152.25 116.25
