ITEM: TIMESTEP
77000
ITEM: NUMBER OF ATOMS
36
ITEM: BOX BOUNDS pp pp pp
0 240
0 240
0 240
ITEM: ATOMS id type x y z
246042 1 123.75 105.75 114.75
252433 1 96.75 105.75 117.75
258025 1 72.75 75.75 120.75
258917 1 108.75 108.75 120.75
285310 1 87.75 138.75 132.75
285390 1 87.75 141.75 132.75
285472 1 93.75 144.75 132.75
291868 1 81.75 144.75 135.75
291955 1 102.75 147.75 135.75
298029 1 84.75 135.75 138.75
304025 1 72.75 120.75 141.75
310588 1 81.75 126.75 144.75
322515 1 102.75 93.75 150.75
322591 1 90.75 96.75 150.75
322835 1 102.75 105.75 150.75
368602 1 123.75 141.75 171.75
713235 1 104.25 107.25 95.25
713314 1 101.25 110.25 95.25
719552 1 95.25 104.25 98.25
725955 1 104.25 104.25 101.25
744346 1 77.25 74.25 110.25
745076 1 107.25 101.25 110.25
745083 1 128.25 101.25 110.25
770915 1 104.25 110.25 122.25
776917 1 110.25 95.25 125.25
790830 1 89.25 137.25 131.25
790994 1 101.25 143.25 131.25
796744 1 71.25 119.25 134.25
796918 1 113.25 125.25 134.25
809627 1 80.25 122.25 140.25
816023 1 68.25 122.25 143.25
822438 1 113.25 122.25 146.25
828756 1 107.25 119.25 149.25
848116 1 107.25 125.25 158.25
860751 1 92.25 119.25 164.25
892677 1 110.25 116.25 179.25
