ITEM: TIMESTEP
82153
ITEM: NUMBER OF ATOMS
34
ITEM: BOX BOUNDS pp pp pp
0 240
0 240
0 240
ITEM: ATOMS id type x y z c_myKE c_myPE
745143 1 63.9843 104.202 110.623 0 -6.2548
770762 1 126.207 105.242 121.78 0 -7.06256
258842 1 124.386 107.061 121.782 0 -7.06141
770842 1 126.209 107.064 123.601 0 -7.07057
322515 1 105.44 91.4343 153.369 0 -6.25653
846177 1 44.8337 49.9606 159.718 0 -6.82608
840612 1 158.425 81.8591 158.494 0 -6.2545
847323 1 129.714 92.6688 159.748 0 -6.25556
852497 1 44.7216 46.7047 162.975 0 -6.54312
903713 1 97.8397 44.7875 188.424 0 -7.07089
910292 1 156.504 51.2048 193.575 0 -6.25672
936521 1 121.458 78.6923 206.301 0 -6.9906
936600 1 118.292 81.6584 206.158 0 -7.05822
942920 1 118.16 78.9123 209.558 0 -7.25876
943001 1 121.55 81.6533 209.483 0 -7.11202
264674 1 100.658 83.4599 121.8 0 -6.25574
283470 1 84.7123 68.7622 132.604 0 -6.25572
284205 1 134.493 94.2695 132.621 0 -6.25469
334662 1 62.4194 65.6096 158.165 0 -7.38317
334663 1 64.2822 67.4716 158.165 0 -7.37959
334583 1 64.2819 65.6087 160.028 0 -7.37974
341061 1 61.192 68.699 161.251 0 -6.27369
347009 1 145.318 48.3934 166.41 0 -6.25411
360979 1 49.6158 96.2348 172.826 0 -6.25469
366129 1 145.415 43.1139 175.949 0 -6.55314
372528 1 142.159 43.244 179.207 0 -6.8213
373158 1 112.205 75.1466 180.509 0 -6.24721
385722 1 126.165 62.3677 183.667 0 -6.25631
391634 1 99.2268 39.8922 187.038 0 -7.24226
391713 1 96.4286 43.2032 186.695 0 -7.39965
398114 1 99.569 43.2026 189.836 0 -7.39787
417813 1 158.104 64.3177 199.607 0 -6.25379
437560 1 118.544 84.6836 209.192 0 -7.08649
457006 1 137.699 96.2102 218.756 0 -6.2553
