ITEM: TIMESTEP
78198
ITEM: NUMBER OF ATOMS
27
ITEM: BOX BOUNDS pp pp pp
0 240
0 240
0 240
ITEM: ATOMS id type x y z c_myKE c_myPE
707491 1 155.245 130.967 91.4687 0 -6.25521
726750 1 88.0987 134.329 98.9765 0 -6.54338
239648 1 145.678 104.201 110.606 0 -6.25484
756526 1 137.359 44.8339 116.98 0 -6.25502
772514 1 101.022 172.448 120.175 0 -6.25514
796028 1 82.0205 91.5907 133.302 0 -6.78179
801650 1 150.447 57.9015 137.17 0 -7.06794
290509 1 85.2621 93.0122 135.805 0 -7.06493
802508 1 82.019 95.5134 137.225 0 -6.78896
808050 1 152.948 56.4849 140.42 0 -6.77454
807969 1 149.031 60.3946 140.411 0 -6.78735
803860 1 56.3621 146.932 139.312 0 -6.25519
828357 1 110.567 102.294 150.095 0 -6.2774
827882 1 124.473 85.0223 151.839 0 -7.26539
840600 1 118.225 81.9952 158.456 0 -7.19368
207470 1 87.9892 96.3447 96.1717 0 -6.54329
213790 1 84.7312 96.2297 99.423 0 -6.82361
221151 1 89.8686 132.558 100.559 0 -6.82709
744283 1 131.332 67.5139 108.993 0 -6.25192
776447 1 138.95 77.085 124.926 0 -6.25093
292844 1 129.38 185.552 137.72 0 -6.25491
315882 1 122.954 83.363 150.392 0 -7.49845
322202 1 123.019 80.3758 153.691 0 -7.40347
834200 1 119.76 83.331 153.561 0 -8.00136
322282 1 122.964 83.5064 153.619 0 -8.08107
322363 1 125.977 86.7897 153.716 0 -7.4167
328682 1 122.995 83.14 156.829 0 -6.9961
