ITEM: TIMESTEP
76322
ITEM: NUMBER OF ATOMS
27
ITEM: BOX BOUNDS pp pp pp
0 240
0 240
0 240
ITEM: ATOMS id type x y z
175868 1 81.75 114.75 81.75
176189 1 84.75 126.75 81.75
182509 1 84.75 123.75 84.75
189079 1 114.75 129.75 87.75
195470 1 87.75 129.75 90.75
201712 1 93.75 123.75 93.75
208032 1 93.75 120.75 96.75
208112 1 93.75 123.75 96.75
214429 1 84.75 120.75 99.75
214513 1 96.75 123.75 99.75
214756 1 105.75 132.75 99.75
220748 1 81.75 117.75 102.75
233086 1 135.75 99.75 108.75
246433 1 96.75 120.75 114.75
669159 1 116.25 134.25 74.25
681472 1 95.25 116.25 80.25
687868 1 83.25 116.25 83.25
706906 1 77.25 110.25 92.25
706984 1 71.25 113.25 92.25
707232 1 95.25 122.25 92.25
707551 1 92.25 134.25 92.25
713631 1 92.25 122.25 95.25
713632 1 95.25 122.25 95.25
713712 1 95.25 125.25 95.25
713870 1 89.25 131.25 95.25
745627 1 80.25 122.25 110.25
796448 1 143.25 107.25 134.25
