ITEM: TIMESTEP
76322
ITEM: NUMBER OF ATOMS
27
ITEM: BOX BOUNDS pp pp pp
0 240
0 240
0 240
ITEM: ATOMS id type x y z
195165 1 132.75 117.75 90.75
201485 1 132.75 114.75 93.75
201486 1 135.75 114.75 93.75
201566 1 135.75 117.75 93.75
207806 1 135.75 111.75 96.75
207884 1 129.75 114.75 96.75
207886 1 135.75 114.75 96.75
220683 1 126.75 114.75 102.75
221232 1 93.75 135.75 102.75
227000 1 117.75 111.75 105.75
227298 1 51.75 123.75 105.75
227703 1 66.75 138.75 105.75
233401 1 120.75 111.75 108.75
252111 1 90.75 93.75 117.75
265249 1 144.75 105.75 123.75
707086 1 137.25 116.25 92.25
707622 1 65.25 137.25 92.25
713406 1 137.25 113.25 95.25
719646 1 137.25 107.25 98.25
719726 1 137.25 110.25 98.25
719727 1 140.25 110.25 98.25
726202 1 125.25 113.25 101.25
726203 1 128.25 113.25 101.25
726752 1 95.25 134.25 101.25
745401 1 122.25 113.25 110.25
764985 1 74.25 128.25 119.25
770768 1 143.25 104.25 122.25
