ITEM: TIMESTEP
76124
ITEM: NUMBER OF ATOMS
29
ITEM: BOX BOUNDS pp pp pp
0 240
0 240
0 240
ITEM: ATOMS id type x y z
175806 1 135.75 111.75 81.75
207709 1 84.75 108.75 96.75
221005 1 132.75 126.75 102.75
226995 1 102.75 111.75 105.75
246180 1 57.75 111.75 114.75
251663 1 186.75 75.75 117.75
270982 1 63.75 81.75 126.75
271698 1 51.75 108.75 126.75
277383 1 66.75 81.75 129.75
309706 1 75.75 93.75 144.75
322094 1 39.75 78.75 150.75
328414 1 39.75 75.75 153.75
341301 1 60.75 78.75 159.75
681155 1 104.25 104.25 80.25
758775 1 164.25 134.25 116.25
765174 1 161.25 134.25 119.25
776576 1 47.25 83.25 125.25
777218 1 53.25 107.25 125.25
783646 1 137.25 107.25 128.25
789966 1 137.25 104.25 131.25
790045 1 134.25 107.25 131.25
790046 1 137.25 107.25 131.25
790047 1 140.25 107.25 131.25
790126 1 137.25 110.25 131.25
790432 1 95.25 122.25 131.25
790590 1 89.25 128.25 131.25
796446 1 137.25 107.25 134.25
803156 1 107.25 119.25 137.25
847558 1 113.25 104.25 158.25
