ITEM: TIMESTEP
79103
ITEM: NUMBER OF ATOMS
35
ITEM: BOX BOUNDS pp pp pp
0 240
0 240
0 240
ITEM: ATOMS id type x y z
232986 1 75.75 96.75 108.75
239474 1 99.75 99.75 111.75
258990 1 87.75 111.75 120.75
277953 1 96.75 102.75 129.75
297326 1 135.75 108.75 138.75
303880 1 117.75 114.75 141.75
309725 1 132.75 93.75 144.75
309882 1 123.75 99.75 144.75
316360 1 117.75 102.75 147.75
316364 1 129.75 102.75 147.75
316521 1 120.75 108.75 147.75
342368 1 141.75 117.75 159.75
738186 1 77.25 83.25 107.25
744828 1 83.25 92.25 110.25
744829 1 86.25 92.25 110.25
744914 1 101.25 95.25 110.25
745315 1 104.25 110.25 110.25
758368 1 143.25 119.25 116.25
758448 1 143.25 122.25 116.25
759007 1 140.25 143.25 116.25
765090 1 149.25 131.25 119.25
765091 1 152.25 131.25 119.25
790207 1 140.25 113.25 131.25
796521 1 122.25 110.25 134.25
796765 1 134.25 119.25 134.25
822200 1 119.25 113.25 146.25
827886 1 137.25 86.25 149.25
828600 1 119.25 113.25 149.25
828604 1 131.25 113.25 149.25
835246 1 137.25 122.25 152.25
841242 1 125.25 107.25 155.25
841246 1 137.25 107.25 155.25
847642 1 125.25 107.25 158.25
854124 1 131.25 110.25 161.25
854364 1 131.25 119.25 161.25
