ITEM: TIMESTEP
75000
ITEM: NUMBER OF ATOMS
50
ITEM: BOX BOUNDS pp pp pp
0 240
0 240
0 240
ITEM: ATOMS id type x y z
143169 1 144.75 87.75 66.75
143249 1 144.75 90.75 66.75
175806 1 135.75 111.75 81.75
175887 1 138.75 114.75 81.75
175965 1 132.75 117.75 81.75
182207 1 138.75 111.75 84.75
182366 1 135.75 117.75 84.75
221014 1 159.75 126.75 102.75
247396 1 105.75 156.75 114.75
247477 1 108.75 159.75 114.75
253797 1 108.75 156.75 117.75
265561 1 120.75 117.75 123.75
271882 1 123.75 114.75 126.75
271961 1 120.75 117.75 126.75
278362 1 123.75 117.75 129.75
278363 1 126.75 117.75 129.75
278364 1 129.75 117.75 129.75
278443 1 126.75 120.75 129.75
278603 1 126.75 126.75 129.75
304213 1 156.75 126.75 141.75
328929 1 144.75 93.75 153.75
624038 1 113.25 122.25 53.25
648926 1 137.25 95.25 65.25
655169 1 146.25 89.25 68.25
655406 1 137.25 98.25 68.25
680683 1 128.25 86.25 80.25
687886 1 137.25 116.25 83.25
694286 1 137.25 116.25 86.25
698994 1 101.25 53.25 89.25
727163 1 128.25 149.25 101.25
727243 1 128.25 152.25 101.25
733144 1 71.25 134.25 104.25
733563 1 128.25 149.25 104.25
740115 1 104.25 155.25 107.25
740194 1 101.25 158.25 107.25
746514 1 101.25 155.25 110.25
771162 1 125.25 119.25 122.25
777482 1 125.25 116.25 125.25
777561 1 122.25 119.25 125.25
777562 1 125.25 119.25 125.25
777642 1 125.25 122.25 125.25
777643 1 128.25 122.25 125.25
783962 1 125.25 119.25 128.25
784042 1 125.25 122.25 128.25
788916 1 107.25 65.25 131.25
790282 1 125.25 116.25 131.25
802277 1 110.25 86.25 137.25
822453 1 158.25 122.25 146.25
841730 1 149.25 125.25 155.25
879963 1 128.25 119.25 173.25
