ITEM: TIMESTEP
76210
ITEM: NUMBER OF ATOMS
20
ITEM: BOX BOUNDS pp pp pp
0 240
0 240
0 240
ITEM: ATOMS id type x y z c_myKE c_myPE
733333 1 159.706 140.545 105.444 0 -6.25237
758510 1 94.428 126.385 118.16 0 -7.47391
765172 1 158.432 134.185 118.213 0 -6.82049
765251 1 155.176 137.443 118.094 0 -6.54368
764752 1 94.8906 123.335 121.486 0 -7.69945
771392 1 94.4928 126.542 121.695 0 -7.68755
764910 1 88.3603 129.64 121.426 0 -7.34052
259313 1 94.6914 123.254 124.638 0 -7.4056
771469 1 88.1805 126.708 124.436 0 -7.42589
771391 1 91.5033 129.586 124.591 0 -7.26402
785147 1 75.5151 166.077 127.78 0 -6.26622
791068 1 79.7937 153.385 134.253 0 -6.71653
209323 1 126.205 170.856 94.2885 0 -6.25407
265873 1 92.946 128.209 119.893 0 -7.81143
777714 1 96.3964 121.789 123.092 0 -7.44115
246751 1 89.8104 131.51 123.037 0 -7.52103
272668 1 77.0619 151.618 128.563 0 -7.00703
784666 1 77.1955 147.648 132.352 0 -7.10473
285789 1 81.1387 151.621 132.5 0 -7.18324
290590 1 86.6789 93.0293 135.769 0 -6.25139
