ITEM: TIMESTEP
78000
ITEM: NUMBER OF ATOMS
24
ITEM: BOX BOUNDS pp pp pp
0 240
0 240
0 240
ITEM: ATOMS id type x y z c_myKE c_myPE
712917 1 111.959 95.1626 92.8507 0.0961009 -5.88003
706597 1 108.623 97.7983 91.3186 0.0186186 -6.74098
247219 1 50.3685 156.597 115.232 0.137168 -6.0194
764734 1 35.2405 120.15 118.256 0.090709 -6.00343
802510 1 86.4891 92.7313 139.183 0.273122 -6.49271
822594 1 99.3075 124.61 143.636 0.22005 -7.03629
310511 1 95.9287 124.399 146.935 0.120093 -6.72152
822674 1 99.0389 127.555 147.104 0.286147 -7.03644
835390 1 88.3996 131.142 152.132 0.0399549 -6.84239
329790 1 88.0076 127.581 154.87 0.0944493 -6.43973
848271 1 89.6567 132.562 159.627 0.0183243 -8.30089
848351 1 92.5792 135.915 159.736 0.0736684 -6.92203
854591 1 89.4256 132.79 163.088 0.111568 -7.44427
855237 1 108.563 153.288 164.704 0.0417924 -6.59244
867002 1 126.661 111.677 169.106 0.249933 -6.59543
291716 1 102.364 140.911 138.994 0.145039 -5.93465
312016 1 39.8633 185.393 145.149 0.171195 -6.51129
329871 1 89.7055 129.288 157.021 0.0872958 -7.55923
336352 1 91.1421 134.061 157.535 0.0366309 -7.52683
342671 1 87.7904 131.032 161.593 0.166116 -7.38301
854671 1 90.8198 134.388 161.607 0.155477 -7.16701
393158 1 110.186 102.642 188.542 0.153503 -7.21088
399638 1 110.014 106.04 192.086 0.0645525 -6.86743
406117 1 107.409 107.429 195.443 0.00941209 -6.28009
