ITEM: TIMESTEP
79000
ITEM: NUMBER OF ATOMS
30
ITEM: BOX BOUNDS pp pp pp
0 240
0 240
0 240
ITEM: ATOMS id type x y z c_myKE c_myPE
668267 1 77.11 100.981 72.8328 0.111599 -6.60218
681482 1 124.816 117.079 78.3362 0.141306 -6.23035
195969 1 148.755 146.811 91.7041 0.191279 -7.73199
183251 1 151.932 150.03 91.4124 0.142159 -8.36988
707891 1 151.812 150.25 94.6314 0.13627 -8.26237
714372 1 152.045 153.44 94.8276 0.186958 -7.75678
726775 1 168.027 133.21 99.3102 0.142092 -6.26977
714292 1 151.969 150.065 97.7267 0.169653 -7.27938
725318 1 111.894 76.74 101.583 0.0613765 -6.87817
227404 1 130.865 131.213 105.666 0.0377818 -6.73882
227486 1 134.095 133.675 104.045 0.139452 -6.75982
227566 1 136.95 133.926 107.334 0.222631 -6.80095
746459 1 181.042 153.186 108.868 0.0258917 -6.46962
784034 1 101.341 123.477 129.821 0.095104 -6.78308
796840 1 117.675 121.699 134.095 0.320989 -6.44739
791574 1 162.593 166.406 132.564 0.270408 -6.11292
195889 1 150.274 148.668 89.7941 0.214351 -7.09071
720852 1 153.509 151.823 89.9735 0.0850199 -7.07026
720767 1 147.253 148.713 93.2476 0.0713503 -7.51084
708052 1 150.236 148.548 92.8341 0.25711 -8.27693
688852 1 153.562 151.826 93.2112 0.0119154 -8.16453
215333 1 156.807 151.65 92.8381 0.433658 -7.67515
701570 1 153.438 154.996 93.2283 0.425048 -7.85213
208691 1 150.235 148.639 96.2066 0.169148 -8.28062
752365 1 134.752 132.713 110.749 0.155174 -6.103
745492 1 158.129 115.614 111.885 0.0909782 -5.72757
255007 1 140.64 206.064 118.597 0.0892782 -5.3656
258123 1 125.714 74.9552 121.598 0.0851951 -6.55987
279574 1 161.274 164.34 130.959 0.325974 -6.90619
285248 1 144.344 137.862 134.415 0.219146 -6.31777
