ITEM: TIMESTEP
86000
ITEM: NUMBER OF ATOMS
29
ITEM: BOX BOUNDS pp pp pp
0 240
0 240
0 240
ITEM: ATOMS id type x y z
194435 1 102.75 90.75 90.75
194436 1 105.75 90.75 90.75
207393 1 96.75 96.75 96.75
214457 1 168.75 120.75 99.75
214690 1 147.75 129.75 99.75
220611 1 150.75 111.75 102.75
220688 1 141.75 114.75 102.75
227086 1 135.75 114.75 105.75
239569 1 144.75 102.75 111.75
239883 1 126.75 114.75 111.75
239884 1 129.75 114.75 111.75
259410 1 147.75 126.75 120.75
316616 1 165.75 111.75 147.75
348705 1 192.75 114.75 162.75
374228 1 201.75 111.75 174.75
419280 1 237.75 120.75 195.75
425680 1 237.75 120.75 198.75
712995 1 104.25 98.25 95.25
719731 1 152.25 110.25 98.25
726449 1 146.25 122.25 101.25
732927 1 140.25 125.25 104.25
745401 1 122.25 113.25 110.25
758365 1 134.25 119.25 116.25
822217 1 170.25 113.25 146.25
822219 1 176.25 113.25 146.25
822221 1 182.25 113.25 146.25
860701 1 182.25 116.25 164.25
931119 1 236.25 116.25 197.25
943998 1 233.25 119.25 203.25
