ITEM: TIMESTEP
77296
ITEM: NUMBER OF ATOMS
29
ITEM: BOX BOUNDS pp pp pp
0 240
0 240
0 240
ITEM: ATOMS id type x y z
227553 1 96.75 132.75 105.75
258354 1 99.75 87.75 120.75
316689 1 144.75 114.75 147.75
323090 1 147.75 114.75 150.75
329252 1 153.75 105.75 153.75
335250 1 147.75 90.75 156.75
341319 1 114.75 78.75 159.75
348840 1 117.75 120.75 162.75
355318 1 111.75 123.75 165.75
355399 1 114.75 126.75 165.75
361709 1 84.75 123.75 168.75
361719 1 114.75 123.75 168.75
770369 1 146.25 89.25 122.25
770450 1 149.25 92.25 122.25
770604 1 131.25 98.25 122.25
776849 1 146.25 92.25 125.25
790813 1 38.25 137.25 131.25
828531 1 152.25 110.25 149.25
828609 1 146.25 113.25 149.25
828610 1 149.25 113.25 149.25
828689 1 146.25 116.25 149.25
834851 1 152.25 107.25 152.25
854683 1 128.25 131.25 161.25
860764 1 131.25 119.25 164.25
867084 1 131.25 116.25 167.25
872602 1 125.25 83.25 170.25
873629 1 86.25 122.25 170.25
873708 1 83.25 125.25 170.25
880109 1 86.25 125.25 173.25
