ITEM: TIMESTEP
78000
ITEM: NUMBER OF ATOMS
24
ITEM: BOX BOUNDS pp pp pp
0 240
0 240
0 240
ITEM: ATOMS id type x y z
233733 1 156.75 123.75 108.75
264918 1 111.75 93.75 123.75
271635 1 102.75 105.75 126.75
272614 1 159.75 141.75 126.75
277716 1 105.75 93.75 129.75
277717 1 108.75 93.75 129.75
278035 1 102.75 105.75 129.75
284272 1 93.75 99.75 132.75
285255 1 162.75 135.75 132.75
285332 1 153.75 138.75 132.75
291091 1 150.75 114.75 135.75
291094 1 159.75 114.75 135.75
298218 1 171.75 141.75 138.75
329892 1 153.75 129.75 153.75
757633 1 98.25 92.25 116.25
764271 1 92.25 101.25 119.25
770516 1 107.25 95.25 122.25
783474 1 101.25 101.25 128.25
783714 1 101.25 110.25 128.25
789559 1 116.25 89.25 131.25
797331 1 152.25 140.25 134.25
797655 1 164.25 152.25 134.25
802910 1 89.25 110.25 137.25
816775 1 164.25 149.25 143.25
