ITEM: TIMESTEP
78173
ITEM: NUMBER OF ATOMS
25
ITEM: BOX BOUNDS pp pp pp
0 240
0 240
0 240
ITEM: ATOMS id type x y z c_myKE c_myPE
650989 1 85.0919 177.59 60.8159 0 -6.25429
688191 1 91.5761 127.954 80.1117 0 -6.54307
733479 1 115.037 148.879 102.286 0 -6.25563
781639 1 115.042 25.7305 127.795 0 -6.25325
834262 1 60.8161 85.083 153.322 0 -6.25621
833957 1 108.653 72.3085 155.26 0 -6.25265
853643 1 127.886 89.4055 164.752 0 -6.54112
860042 1 124.637 89.5204 168.014 0 -6.81943
860115 1 102.249 94.5118 167.782 0 -6.69403
866514 1 99.1338 94.7483 171.194 0 -6.85901
163721 1 122.13 141.044 70.8788 0 -6.78031
669401 1 124.638 144.286 72.2971 0 -7.07244
163802 1 124.637 142.465 74.118 0 -7.05884
175223 1 62.4092 87.9241 78.3543 0 -6.2532
176191 1 89.9921 126.187 78.3441 0 -6.82053
208673 1 94.3027 147.285 94.3113 0 -6.25214
208021 1 56.0263 121.764 96.2452 0 -6.25305
239314 1 100.684 93.0548 110.253 0 -6.2532
246744 1 67.5423 131.331 115.395 0 -6.25349
808124 1 131.531 59.5401 142.458 0 -7.05717
302604 1 129.724 61.369 142.47 0 -7.04256
308923 1 128.295 58.1151 144.977 0 -6.77723
360115 1 100.687 59.2184 170.859 0 -6.2537
354596 1 103.694 96.2899 169.637 0 -7.04069
899316 1 107.066 121.773 186.815 0 -6.25265
