ITEM: TIMESTEP
76219
ITEM: NUMBER OF ATOMS
28
ITEM: BOX BOUNDS pp pp pp
0 240
0 240
0 240
ITEM: ATOMS id type x y z c_myKE c_myPE
707220 1 54.4328 123.354 89.5143 0 -6.25361
719147 1 78.5954 86.3495 95.8915 0 -7.19563
720354 1 99.0879 134.167 95.9002 0 -6.25497
725466 1 75.5972 83.0107 99.1995 0 -7.25578
720132 1 156.501 124.603 97.8257 0 -6.25559
732371 1 155.272 104.214 104.221 0 -6.25648
738043 1 129.738 73.5707 107.414 0 -6.25376
246281 1 113.805 110.725 116.987 0 -6.8285
789876 1 107.415 94.6157 130.978 0 -6.25911
777635 1 108.643 124.614 130.989 0 -6.26238
291077 1 110.439 113.896 137.532 0 -6.54299
809168 1 143.757 102.29 142.488 0 -6.82063
809249 1 147.015 105.541 142.62 0 -6.55085
822747 1 79.9542 136.108 148.882 0 -6.25367
865554 1 99.0869 54.4269 172.456 0 -6.25463
200999 1 115.383 94.2999 91.1071 0 -6.25375
213547 1 77.1782 84.5146 97.5939 0 -7.77202
213548 1 80.3907 84.7587 97.5279 0 -8.12438
219947 1 77.1354 84.723 100.693 0 -7.41368
220028 1 80.3661 88.0348 100.842 0 -6.58932
252760 1 112.033 112.304 115.218 0 -6.54182
246533 1 160.06 123.018 115.385 0 -6.25433
272130 1 145.292 125.022 128.203 0 -6.2842
784205 1 142.205 128.107 129.432 0 -7.37373
784127 1 142.205 126.249 131.29 0 -7.37131
278688 1 145.29 129.337 132.518 0 -6.28284
796597 1 112.211 112.315 135.761 0 -6.8287
285650 1 148.534 153.664 134.523 0 -6.25308
