ITEM: TIMESTEP
78000
ITEM: NUMBER OF ATOMS
30
ITEM: BOX BOUNDS pp pp pp
0 240
0 240
0 240
ITEM: ATOMS id type x y z c_myKE c_myPE
170456 1 168.095 155.078 73.7354 0.0741343 -6.54303
682360 1 119.874 150.237 79.0215 0.222388 -6.09205
693409 1 148.973 82.2275 81.7681 0.332439 -6.9879
181650 1 150.071 86.5044 83.1625 0.102527 -7.8739
699553 1 95.814 70.183 86.3466 0.0702207 -7.14302
693489 1 151.794 82.0329 85.0964 0.538523 -7.14334
694590 1 84.4455 130.758 84.9751 0.322094 -7.32052
701151 1 89.3903 134.104 86.0678 0.408333 -7.32058
706606 1 130.617 95.3104 91.4798 0.032529 -6.71426
713161 1 124.231 99.3626 94.6782 0.106906 -7.82646
713004 1 126.07 101.136 94.601 0.0398853 -7.80776
201245 1 129.673 104.835 94.7033 0.016557 -7.25053
213247 1 139.596 75.6125 99.2432 0.166049 -6.75099
707006 1 129.507 101.062 98.3613 0.0633849 -7.68834
769744 1 196.81 60.6855 121.342 0.0697646 -6.72736
782837 1 110.993 75.2864 129.396 0.510359 -6.2777
693569 1 147.073 83.3151 83.4478 0.0807389 -7.22956
687170 1 147.023 87.094 83.4418 0.241578 -7.09753
700990 1 86.6321 129.235 84.9762 0.155991 -7.08378
194033 1 94.054 72.403 88.0735 0.170374 -6.59891
706530 1 147.061 86.7818 86.4023 0.122722 -6.64922
194992 1 93.2976 110.33 87.904 0.128224 -6.90478
195631 1 87.8017 135.669 87.8929 0.0503705 -7.15084
725963 1 127.919 99.2358 90.7929 0.3569 -7.30467
182043 1 129.596 102.794 92.7533 0.18338 -7.8912
201342 1 186.191 105.753 92.7496 0.0610075 -6.00966
221401 1 121.794 144.124 101.043 0.147167 -6.34945
258524 1 131.22 91.0934 119.95 0.161874 -6.4552
271797 1 107.386 112.251 128.35 0.134136 -5.79212
296922 1 123.094 92.9924 140.571 0.0727431 -6.69994
