ITEM: TIMESTEP
78208
ITEM: NUMBER OF ATOMS
31
ITEM: BOX BOUNDS pp pp pp
0 240
0 240
0 240
ITEM: ATOMS id type x y z
181166 1 135.75 72.75 84.75
181242 1 123.75 75.75 84.75
181326 1 135.75 78.75 84.75
188208 1 141.75 96.75 87.75
188928 1 141.75 123.75 87.75
194205 1 132.75 81.75 90.75
194366 1 135.75 87.75 90.75
200766 1 135.75 87.75 93.75
201099 1 174.75 99.75 93.75
207162 1 123.75 87.75 96.75
207484 1 129.75 99.75 96.75
207563 1 126.75 102.75 96.75
213649 1 144.75 90.75 99.75
219895 1 162.75 84.75 102.75
220441 1 120.75 105.75 102.75
232687 1 138.75 84.75 108.75
245883 1 126.75 99.75 114.75
246614 1 159.75 126.75 114.75
693728 1 143.25 95.25 86.25
699573 1 158.25 74.25 89.25
713959 1 116.25 134.25 95.25
714196 1 107.25 143.25 95.25
719233 1 98.25 92.25 98.25
719393 1 98.25 98.25 98.25
719564 1 131.25 104.25 98.25
726917 1 110.25 140.25 101.25
731813 1 158.25 83.25 104.25
731963 1 128.25 89.25 104.25
738213 1 158.25 83.25 107.25
738528 1 143.25 95.25 107.25
738531 1 152.25 95.25 107.25
