ITEM: TIMESTEP
78186
ITEM: NUMBER OF ATOMS
19
ITEM: BOX BOUNDS pp pp pp
0 240
0 240
0 240
ITEM: ATOMS id type x y z
207393 1 96.75 96.75 96.75
220273 1 96.75 99.75 102.75
233154 1 99.75 102.75 108.75
266193 1 96.75 141.75 123.75
266273 1 96.75 144.75 123.75
297075 1 102.75 99.75 138.75
297163 1 126.75 102.75 138.75
297876 1 105.75 129.75 138.75
316362 1 123.75 102.75 147.75
323244 1 129.75 120.75 150.75
732275 1 104.25 101.25 104.25
738752 1 95.25 104.25 107.25
763869 1 86.25 86.25 119.25
783956 1 107.25 119.25 128.25
790358 1 113.25 119.25 131.25
796363 1 128.25 104.25 134.25
796520 1 119.25 110.25 134.25
797076 1 107.25 131.25 134.25
841086 1 137.25 101.25 155.25
