ITEM: TIMESTEP
79154
ITEM: NUMBER OF ATOMS
29
ITEM: BOX BOUNDS pp pp pp
0 240
0 240
0 240
ITEM: ATOMS id type x y z
207393 1 96.75 96.75 96.75
227715 1 102.75 138.75 105.75
233953 1 96.75 132.75 108.75
278843 1 126.75 135.75 129.75
297148 1 81.75 102.75 138.75
297546 1 75.75 117.75 138.75
309949 1 84.75 102.75 144.75
310028 1 81.75 105.75 144.75
310029 1 84.75 105.75 144.75
316026 1 75.75 90.75 147.75
316432 1 93.75 105.75 147.75
317726 1 135.75 153.75 147.75
322910 1 87.75 108.75 150.75
322990 1 87.75 111.75 150.75
348431 1 90.75 105.75 162.75
700915 1 104.25 125.25 89.25
713477 1 110.25 116.25 95.25
764595 1 104.25 113.25 119.25
777152 1 95.25 104.25 125.25
783948 1 83.25 119.25 128.25
784439 1 116.25 137.25 128.25
790184 1 71.25 113.25 131.25
810367 1 140.25 149.25 140.25
822189 1 86.25 113.25 146.25
828348 1 83.25 104.25 149.25
828428 1 83.25 107.25 149.25
841306 1 77.25 110.25 155.25
841390 1 89.25 113.25 155.25
873065 1 74.25 101.25 170.25
