ITEM: TIMESTEP
78314
ITEM: NUMBER OF ATOMS
38
ITEM: BOX BOUNDS pp pp pp
0 240
0 240
0 240
ITEM: ATOMS id type x y z
155876 1 105.75 84.75 72.75
194595 1 102.75 96.75 90.75
200918 1 111.75 93.75 93.75
213560 1 117.75 87.75 99.75
219960 1 117.75 87.75 102.75
226757 1 108.75 102.75 105.75
233239 1 114.75 105.75 108.75
233323 1 126.75 108.75 108.75
239405 1 132.75 96.75 111.75
239485 1 132.75 99.75 111.75
239487 1 138.75 99.75 111.75
239560 1 117.75 102.75 111.75
245485 1 132.75 84.75 114.75
246043 1 126.75 105.75 114.75
253015 1 162.75 126.75 117.75
258690 1 147.75 99.75 120.75
258693 1 156.75 99.75 120.75
258926 1 135.75 108.75 120.75
265319 1 114.75 108.75 123.75
271261 1 180.75 90.75 126.75
271797 1 108.75 111.75 126.75
271894 1 159.75 114.75 126.75
278132 1 153.75 108.75 129.75
693636 1 107.25 92.25 86.25
719493 1 158.25 101.25 98.25
720453 1 158.25 137.25 98.25
725876 1 107.25 101.25 101.25
738598 1 113.25 98.25 107.25
738843 1 128.25 107.25 107.25
745095 1 164.25 101.25 110.25
751804 1 131.25 113.25 113.25
770448 1 143.25 92.25 122.25
770606 1 137.25 98.25 122.25
771416 1 167.25 128.25 122.25
776994 1 101.25 98.25 125.25
783248 1 143.25 92.25 128.25
814943 1 188.25 80.25 143.25
834544 1 191.25 95.25 152.25
