ITEM: TIMESTEP
77000
ITEM: NUMBER OF ATOMS
41
ITEM: BOX BOUNDS pp pp pp
0 240
0 240
0 240
ITEM: ATOMS id type x y z
214673 1 96.75 129.75 99.75
227481 1 120.75 129.75 105.75
234197 1 108.75 141.75 108.75
234278 1 111.75 144.75 108.75
240277 1 108.75 129.75 111.75
246756 1 105.75 132.75 114.75
246759 1 114.75 132.75 114.75
252674 1 99.75 114.75 117.75
253075 1 102.75 129.75 117.75
253156 1 105.75 132.75 117.75
253237 1 108.75 135.75 117.75
253316 1 105.75 138.75 117.75
253318 1 111.75 138.75 117.75
253396 1 105.75 141.75 117.75
253397 1 108.75 141.75 117.75
253477 1 108.75 144.75 117.75
259235 1 102.75 120.75 120.75
259634 1 99.75 135.75 120.75
259953 1 96.75 147.75 120.75
272111 1 90.75 123.75 126.75
285552 1 93.75 147.75 132.75
726680 1 119.25 131.25 101.25
732680 1 119.25 116.25 104.25
733475 1 104.25 146.25 104.25
738511 1 92.25 95.25 107.25
739723 1 128.25 140.25 107.25
746117 1 110.25 140.25 110.25
746195 1 104.25 143.25 110.25
746276 1 107.25 146.25 110.25
752994 1 101.25 158.25 113.25
758756 1 107.25 134.25 116.25
758916 1 107.25 140.25 116.25
764754 1 101.25 119.25 119.25
764992 1 95.25 128.25 119.25
765154 1 101.25 134.25 119.25
765156 1 107.25 134.25 119.25
771793 1 98.25 143.25 122.25
784673 1 98.25 146.25 128.25
790756 1 107.25 134.25 131.25
803145 1 74.25 119.25 137.25
821864 1 71.25 101.25 146.25
