ITEM: TIMESTEP
79427
ITEM: NUMBER OF ATOMS
27
ITEM: BOX BOUNDS pp pp pp
0 240
0 240
0 240
ITEM: ATOMS id type x y z c_myKE c_myPE
784832 1 92.6708 156.693 127.849 0 -7.41109
772114 1 95.8515 153.464 131.069 0 -8.14411
791232 1 92.8197 156.533 131.028 0 -8.6802
784991 1 89.6668 159.885 131.16 0 -7.88377
285794 1 99.0359 150.189 134.451 0 -7.52428
292112 1 92.7967 153.428 134.396 0 -8.42773
285792 1 89.647 156.651 134.289 0 -8.77576
797631 1 89.5908 153.365 137.409 0 -8.10803
815714 1 99.1572 110.511 143.655 0 -6.26958
822933 1 161.631 142.499 148.871 0 -6.25368
744605 1 137.7 81.5434 109.005 0 -6.25325
279392 1 91.1406 158.254 129.529 0 -8.33567
285634 1 100.513 148.471 132.559 0 -7.91233
285633 1 94.393 151.889 132.733 0 -8.41052
291953 1 97.5391 151.799 132.739 0 -8.11817
791312 1 91.2691 155.065 132.771 0 -8.7909
791392 1 94.347 154.99 132.787 0 -8.45305
285791 1 88.0727 158.265 132.711 0 -8.29907
791391 1 91.2176 158.178 132.651 0 -8.75371
797555 1 103.917 148.466 135.878 0 -6.65043
298355 1 97.5071 151.82 135.955 0 -7.76081
292110 1 84.8947 155.045 135.946 0 -7.8365
285711 1 88.0932 155.073 135.923 0 -8.61643
804031 1 91.2194 155.099 135.892 0 -8.49407
292191 1 87.9955 158.229 135.741 0 -8.37015
298511 1 88.0955 155.08 139.1 0 -7.75857
362027 1 75.1603 135.774 172.795 0 -6.2553
