ITEM: TIMESTEP
76000
ITEM: NUMBER OF ATOMS
28
ITEM: BOX BOUNDS pp pp pp
0 240
0 240
0 240
ITEM: ATOMS id type x y z
182987 1 78.75 141.75 84.75
207725 1 132.75 108.75 96.75
208108 1 81.75 123.75 96.75
221065 1 72.75 129.75 102.75
246422 1 63.75 120.75 114.75
252514 1 99.75 108.75 117.75
265716 1 105.75 123.75 123.75
272035 1 102.75 120.75 126.75
272753 1 96.75 147.75 126.75
278434 1 99.75 120.75 129.75
278595 1 102.75 126.75 129.75
285077 1 108.75 129.75 132.75
291152 1 93.75 117.75 135.75
304275 1 102.75 129.75 141.75
304353 1 96.75 132.75 141.75
311317 1 108.75 153.75 144.75
693883 1 128.25 101.25 86.25
700441 1 122.25 107.25 89.25
738765 1 134.25 104.25 107.25
744842 1 125.25 92.25 110.25
758261 1 62.25 116.25 116.25
771469 1 86.25 131.25 122.25
777955 1 104.25 134.25 125.25
778270 1 89.25 146.25 125.25
784671 1 92.25 146.25 128.25
791234 1 101.25 152.25 131.25
803873 1 98.25 146.25 137.25
809954 1 101.25 134.25 140.25
