ITEM: TIMESTEP
76000
ITEM: NUMBER OF ATOMS
32
ITEM: BOX BOUNDS pp pp pp
0 240
0 240
0 240
ITEM: ATOMS id type x y z
232835 1 102.75 90.75 108.75
245713 1 96.75 93.75 114.75
245791 1 90.75 96.75 114.75
252354 1 99.75 102.75 117.75
258188 1 81.75 81.75 120.75
265160 1 117.75 102.75 123.75
271545 1 72.75 102.75 126.75
271625 1 72.75 105.75 126.75
271717 1 108.75 108.75 126.75
277788 1 81.75 96.75 129.75
290743 1 66.75 102.75 135.75
309790 1 87.75 96.75 144.75
316589 1 84.75 111.75 147.75
719312 1 95.25 95.25 98.25
732034 1 101.25 92.25 104.25
757784 1 71.25 98.25 116.25
757792 1 95.25 98.25 116.25
757806 1 137.25 98.25 116.25
764281 1 122.25 101.25 119.25
783232 1 95.25 92.25 128.25
783866 1 77.25 116.25 128.25
796203 1 128.25 98.25 134.25
796265 1 74.25 101.25 134.25
796665 1 74.25 116.25 134.25
802913 1 98.25 110.25 137.25
809067 1 80.25 101.25 140.25
809068 1 83.25 101.25 140.25
821714 1 101.25 95.25 146.25
827725 1 134.25 80.25 149.25
840363 1 128.25 74.25 155.25
840443 1 128.25 77.25 155.25
847396 1 107.25 98.25 158.25
