ITEM: TIMESTEP
78000
ITEM: NUMBER OF ATOMS
30
ITEM: BOX BOUNDS pp pp pp
0 240
0 240
0 240
ITEM: ATOMS id type x y z c_myKE c_myPE
585413 1 161.924 113.756 30.5969 0.21485 -6.12791
744599 1 116.975 81.8145 108.712 0.240625 -7.48596
750919 1 117.102 78.7898 112.232 0.0696144 -5.8312
789551 1 91.3077 86.1752 131.024 0.119907 -5.73556
797084 1 132.968 130.958 134.119 0.0961742 -6.5612
797004 1 130.898 129.728 136.293 0.00468996 -7.22416
803725 1 134.255 142.286 137.595 0.158055 -7.28186
803726 1 137.571 142.655 137.469 0.254834 -7.39641
810126 1 137.266 142.753 140.545 0.256692 -7.73999
810127 1 140.63 142.327 140.475 0.134191 -7.42145
304196 1 104.453 129.913 143.886 0.0300536 -6.60058
816275 1 102.483 131.16 145.739 0.164325 -7.33343
859887 1 140.609 83.4557 165.938 0.0669333 -7.59494
386626 1 201.2 97.6313 183.736 0.400232 -6.23683
930919 1 115.107 108.617 203.043 0.229858 -6.91079
957490 1 149.789 146.93 215.812 0.301073 -6.92684
193631 1 90.1266 54.8688 87.9152 0.104975 -6.58432
207479 1 115.313 102.738 96.3464 0.0535683 -6.03353
246675 1 102.866 129.111 115.367 0.0196496 -6.03365
259470 1 84.7727 129.326 118.792 0.147974 -5.96024
777462 1 60.9805 118.408 125.035 0.0157945 -6.36989
277551 1 89.9605 84.5729 129.32 0.102707 -7.14572
809471 1 93.2718 115.22 142.236 0.0461543 -5.75688
304607 1 139.097 144.153 141.89 0.377431 -7.25986
347888 1 142.293 81.7519 164.382 0.324473 -7.32111
859968 1 145.302 85.0602 164.15 0.0500832 -7.61593
859969 1 145.268 87.9414 167.688 0.040907 -6.73107
412997 1 107.07 125.954 198.606 0.228397 -6.82362
419337 1 172.997 124.777 201.765 0.0995476 -6.63855
425400 1 116.86 110.177 204.513 0.0518051 -6.72024
