ITEM: TIMESTEP
77159
ITEM: NUMBER OF ATOMS
44
ITEM: BOX BOUNDS pp pp pp
0 240
0 240
0 240
ITEM: ATOMS id type x y z
200759 1 114.75 87.75 93.75
214366 1 135.75 117.75 99.75
214528 1 141.75 123.75 99.75
220762 1 123.75 117.75 102.75
220766 1 135.75 117.75 102.75
220847 1 138.75 120.75 102.75
220928 1 141.75 123.75 102.75
221316 1 105.75 138.75 102.75
227247 1 138.75 120.75 105.75
227328 1 141.75 123.75 105.75
227408 1 141.75 126.75 105.75
233034 1 219.75 96.75 108.75
233567 1 138.75 117.75 108.75
233646 1 135.75 120.75 108.75
233728 1 141.75 123.75 108.75
255026 1 195.75 201.75 117.75
259874 1 99.75 144.75 120.75
272935 1 162.75 153.75 126.75
273014 1 159.75 156.75 126.75
279334 1 159.75 153.75 129.75
279415 1 162.75 156.75 129.75
311156 1 105.75 147.75 144.75
713567 1 140.25 119.25 95.25
714613 1 158.25 158.25 95.25
720047 1 140.25 122.25 98.25
720128 1 143.25 125.25 98.25
721012 1 155.25 158.25 98.25
721093 1 158.25 161.25 98.25
726366 1 137.25 119.25 101.25
726447 1 140.25 122.25 101.25
726528 1 143.25 125.25 101.25
726916 1 107.25 140.25 101.25
732681 1 122.25 116.25 104.25
732765 1 134.25 119.25 104.25
732766 1 137.25 119.25 104.25
732847 1 140.25 122.25 104.25
732928 1 143.25 125.25 104.25
733317 1 110.25 140.25 104.25
733396 1 107.25 143.25 104.25
739247 1 140.25 122.25 107.25
771794 1 101.25 143.25 122.25
772939 1 176.25 185.25 122.25
810375 1 164.25 149.25 140.25
829978 1 173.25 164.25 149.25
