ITEM: TIMESTEP
79189
ITEM: NUMBER OF ATOMS
23
ITEM: BOX BOUNDS pp pp pp
0 240
0 240
0 240
ITEM: ATOMS id type x y z c_myKE c_myPE
648523 1 129.747 76.7588 60.7909 0 -6.25147
656447 1 140.562 139.313 63.9748 0 -6.25465
662588 1 81.8934 129.744 67.1648 0 -6.25589
732839 1 120.212 121.4 94.64 0 -7.06521
784763 1 134.184 150.121 121.391 0 -6.25683
266209 1 143.749 143.741 123.333 0 -6.25777
822530 1 150.135 126.543 148.855 0 -6.25453
190357 1 107.068 180.439 84.7042 0 -6.25493
207963 1 121.796 119.669 93.2297 0 -7.39163
720923 1 124.972 161.306 94.2723 0 -6.26086
726440 1 125.113 120.011 96.0285 0 -7.24669
707159 1 121.797 122.81 96.3712 0 -7.39227
228209 1 140.962 158.096 103.802 0 -7.52157
733725 1 137.638 161.405 103.755 0 -6.57659
227464 1 65.5982 129.384 105.794 0 -6.25493
221319 1 116.546 139.07 105.697 0 -6.57733
228366 1 141.002 161.404 107.126 0 -6.57185
240520 1 116.591 135.753 109.019 0 -7.52607
733240 1 119.916 139.066 109.058 0 -6.57427
240760 1 116.631 148.538 112.185 0 -6.2666
254451 1 153.861 183.933 116.929 0 -7.06204
248130 1 150.616 186.443 115.511 0 -6.78109
766450 1 152.04 183.935 118.747 0 -7.06197
