ITEM: TIMESTEP
78192
ITEM: NUMBER OF ATOMS
35
ITEM: BOX BOUNDS pp pp pp
0 240
0 240
0 240
ITEM: ATOMS id type x y z c_myKE c_myPE
631000 1 120.153 145.697 51.2432 0 -6.2541
649487 1 142.482 115.042 60.813 0 -6.25356
752666 1 73.5489 148.889 111.843 0 -6.25368
758832 1 94.6497 139.44 116.991 0 -6.82538
763796 1 105.329 81.9077 120.182 0 -6.82392
291475 1 97.9379 127.688 130.149 0 -6.85463
788985 1 70.3637 64.0031 132.934 0 -6.25467
801323 1 129.721 44.8662 139.309 0 -6.25412
324206 1 137.322 156.54 150.298 0 -6.93992
840586 1 73.6247 79.8272 158.374 0 -6.54611
842108 1 81.9336 140.604 158.553 0 -7.03649
842109 1 84.9733 140.323 158.336 0 -6.85997
846985 1 70.3714 79.9538 161.632 0 -6.81917
854678 1 113.266 131.023 165.024 0 -6.94815
860998 1 113.541 129.502 168.285 0 -6.58179
720844 1 132.572 158.109 100.696 0 -6.82171
228205 1 135.828 157.989 103.952 0 -6.54449
746201 1 121.675 142.277 106.988 0 -6.26146
758831 1 92.8783 141.023 115.222 0 -6.54206
251796 1 103.743 80.1369 118.41 0 -6.5417
284836 1 99.3802 124.394 132.471 0 -8.05996
278516 1 99.2548 122.518 134.296 0 -7.95838
796836 1 102.944 124.568 135.986 0 -7.93034
291393 1 96.2686 129.356 138.903 0 -6.75096
303396 1 103.738 94.3805 144.018 0 -6.54583
309716 1 103.865 91.1254 147.275 0 -6.81858
317806 1 137.786 156.928 147.693 0 -7.18417
317807 1 141.142 158.522 150.157 0 -7.10566
823406 1 139.28 160.343 150.21 0 -7.33553
318439 1 115.289 183.508 150.4 0 -6.54697
323004 1 131.315 110.25 153.667 0 -6.25334
324840 1 118.542 183.633 153.656 0 -6.82044
330109 1 83.3127 138.832 156.818 0 -7.06807
335869 1 81.5277 113.446 160.065 0 -6.25445
349079 1 115.113 131.074 166.827 0 -7.47844
