ITEM: TIMESTEP
79096
ITEM: NUMBER OF ATOMS
44
ITEM: BOX BOUNDS pp pp pp
0 240
0 240
0 240
ITEM: ATOMS id type x y z
176750 1 87.75 147.75 81.75
181959 1 114.75 102.75 84.75
194596 1 105.75 96.75 90.75
201476 1 105.75 114.75 93.75
207393 1 96.75 96.75 96.75
229016 1 165.75 186.75 105.75
234112 1 93.75 138.75 108.75
235579 1 174.75 192.75 108.75
240280 1 117.75 129.75 111.75
241008 1 141.75 156.75 111.75
241485 1 132.75 174.75 111.75
246929 1 144.75 138.75 114.75
260212 1 153.75 156.75 120.75
266847 1 138.75 165.75 123.75
266929 1 144.75 168.75 123.75
267170 1 147.75 177.75 123.75
273170 1 147.75 162.75 126.75
273725 1 132.75 183.75 126.75
277955 1 102.75 102.75 129.75
279570 1 147.75 162.75 129.75
279888 1 141.75 174.75 129.75
688114 1 101.25 125.25 83.25
694039 1 116.25 107.25 86.25
706680 1 119.25 101.25 92.25
712993 1 98.25 98.25 95.25
720597 1 110.25 143.25 98.25
732440 1 119.25 107.25 104.25
741015 1 164.25 188.25 107.25
741256 1 167.25 197.25 107.25
758277 1 110.25 116.25 116.25
759171 1 152.25 149.25 116.25
759328 1 143.25 155.25 116.25
765969 1 146.25 164.25 119.25
766287 1 140.25 176.25 119.25
770755 1 104.25 104.25 122.25
770756 1 107.25 104.25 122.25
772369 1 146.25 164.25 122.25
772450 1 149.25 167.25 122.25
778371 1 152.25 149.25 125.25
779331 1 152.25 185.25 125.25
785012 1 155.25 158.25 128.25
785648 1 143.25 182.25 128.25
785652 1 155.25 182.25 128.25
798291 1 152.25 176.25 134.25
