ITEM: TIMESTEP
78000
ITEM: NUMBER OF ATOMS
24
ITEM: BOX BOUNDS pp pp pp
0 240
0 240
0 240
ITEM: ATOMS id type x y z
175083 1 126.75 84.75 81.75
200289 1 144.75 69.75 93.75
200533 1 156.75 78.75 93.75
207163 1 126.75 87.75 96.75
207393 1 96.75 96.75 96.75
213401 1 120.75 81.75 99.75
226282 1 123.75 84.75 105.75
232208 1 141.75 66.75 108.75
233161 1 120.75 102.75 108.75
258935 1 162.75 108.75 120.75
673966 1 137.25 74.25 77.25
699248 1 143.25 62.25 89.25
712603 1 128.25 83.25 95.25
719084 1 131.25 86.25 98.25
719323 1 128.25 95.25 98.25
725161 1 122.25 74.25 101.25
725730 1 149.25 95.25 101.25
725957 1 110.25 104.25 101.25
725963 1 128.25 104.25 101.25
731956 1 107.25 89.25 104.25
732358 1 113.25 104.25 104.25
738132 1 155.25 80.25 107.25
802364 1 131.25 89.25 137.25
821093 1 158.25 71.25 146.25
