ITEM: TIMESTEP
80241
ITEM: NUMBER OF ATOMS
23
ITEM: BOX BOUNDS pp pp pp
0 240
0 240
0 240
ITEM: ATOMS id type x y z
239880 1 117.75 114.75 111.75
258674 1 99.75 99.75 120.75
284358 1 111.75 102.75 132.75
291239 1 114.75 120.75 135.75
303550 1 87.75 102.75 141.75
303796 1 105.75 111.75 141.75
310038 1 111.75 105.75 144.75
310116 1 105.75 108.75 144.75
322915 1 102.75 108.75 150.75
366365 1 132.75 57.75 171.75
745147 1 80.25 104.25 110.25
770191 1 92.25 83.25 122.25
776669 1 86.25 86.25 125.25
777311 1 92.25 110.25 125.25
790035 1 104.25 107.25 131.25
790115 1 104.25 110.25 131.25
790438 1 113.25 122.25 131.25
809396 1 107.25 113.25 140.25
821398 1 113.25 83.25 146.25
822034 1 101.25 107.25 146.25
859244 1 131.25 62.25 164.25
865563 1 128.25 59.25 167.25
865644 1 131.25 62.25 167.25
