ITEM: TIMESTEP
77403
ITEM: NUMBER OF ATOMS
41
ITEM: BOX BOUNDS pp pp pp
0 240
0 240
0 240
ITEM: ATOMS id type x y z
137573 1 156.75 117.75 63.75
137654 1 159.75 120.75 63.75
144053 1 156.75 120.75 66.75
228594 1 99.75 171.75 105.75
228673 1 96.75 174.75 105.75
250843 1 126.75 45.75 117.75
263886 1 135.75 54.75 123.75
270367 1 138.75 57.75 126.75
276994 1 99.75 66.75 129.75
285640 1 117.75 150.75 132.75
291960 1 117.75 147.75 135.75
292039 1 114.75 150.75 135.75
292041 1 120.75 150.75 135.75
292120 1 117.75 153.75 135.75
298440 1 117.75 150.75 138.75
304519 1 114.75 138.75 141.75
304599 1 114.75 141.75 141.75
316368 1 141.75 102.75 147.75
623886 1 137.25 116.25 53.25
663266 1 197.25 152.25 71.25
700285 1 134.25 101.25 89.25
700364 1 131.25 104.25 89.25
706684 1 131.25 101.25 92.25
706763 1 128.25 104.25 92.25
706934 1 161.25 110.25 92.25
712355 1 104.25 74.25 95.25
713245 1 134.25 107.25 95.25
762843 1 128.25 47.25 119.25
775805 1 134.25 53.25 125.25
775886 1 137.25 56.25 125.25
782285 1 134.25 56.25 128.25
788914 1 101.25 65.25 131.25
791240 1 119.25 152.25 131.25
797641 1 122.25 152.25 134.25
797720 1 119.25 155.25 134.25
810118 1 113.25 140.25 140.25
810199 1 116.25 143.25 140.25
810278 1 113.25 146.25 140.25
815470 1 89.25 101.25 143.25
816054 1 161.25 122.25 143.25
823800 1 119.25 173.25 146.25
