ITEM: TIMESTEP
80207
ITEM: NUMBER OF ATOMS
24
ITEM: BOX BOUNDS pp pp pp
0 240
0 240
0 240
ITEM: ATOMS id type x y z c_myKE c_myPE
662192 1 92.7138 111.875 69.1247 0 -6.25311
726678 1 113.72 129.893 94.5677 0 -6.55499
214679 1 116.979 129.757 97.8211 0 -6.8262
732773 1 159.698 120.201 102.279 0 -6.25446
733156 1 110.619 136.178 102.28 0 -6.27564
732369 1 146.945 104.258 104.216 0 -6.25453
797475 1 102.121 147.558 136.086 0 -7.18963
803874 1 100.797 149.102 137.777 0 -7.36586
292598 1 115.194 175.837 137.081 0 -7.12617
798199 1 118.345 178.991 137.263 0 -6.42063
298274 1 100.68 147.352 139.693 0 -7.19028
816204 1 132.945 131.026 145.683 0 -6.25337
823967 1 142.526 184.022 149.003 0 -6.82077
189639 1 115.397 153.698 84.7268 0 -6.25237
207007 1 140.917 78.3807 93.0542 0 -6.25366
200835 1 102.641 87.9517 93.0516 0 -6.2536
220908 1 77.1134 123.04 102.613 0 -6.25374
241318 1 109.01 174.086 108.979 0 -6.25013
284516 1 103.887 109.04 132.57 0 -6.25312
285394 1 99.6541 144.072 134.451 0 -6.71101
791800 1 114.887 177.253 134.728 0 -6.89726
292680 1 113.458 174.105 138.707 0 -6.87135
318367 1 140.757 182.252 150.586 0 -6.53893
337558 1 110.252 182.417 158.101 0 -6.2553
