ITEM: TIMESTEP
79219
ITEM: NUMBER OF ATOMS
23
ITEM: BOX BOUNDS pp pp pp
0 240
0 240
0 240
ITEM: ATOMS id type x y z
213872 1 93.75 99.75 99.75
240354 1 99.75 132.75 111.75
241544 1 69.75 177.75 111.75
246678 1 111.75 129.75 114.75
246754 1 99.75 132.75 114.75
252994 1 99.75 126.75 117.75
259155 1 102.75 117.75 120.75
259633 1 96.75 135.75 120.75
265637 1 108.75 120.75 123.75
719875 1 104.25 116.25 98.25
726434 1 101.25 122.25 101.25
732520 1 119.25 110.25 104.25
740106 1 77.25 155.25 107.25
745554 1 101.25 119.25 110.25
752433 1 98.25 137.25 113.25
758668 1 83.25 131.25 116.25
759073 1 98.25 146.25 116.25
759223 1 68.25 152.25 116.25
764993 1 98.25 128.25 119.25
765232 1 95.25 137.25 119.25
771394 1 101.25 128.25 122.25
771476 1 107.25 131.25 122.25
777796 1 107.25 128.25 125.25
