ITEM: TIMESTEP
76000
ITEM: NUMBER OF ATOMS
31
ITEM: BOX BOUNDS pp pp pp
0 240
0 240
0 240
ITEM: ATOMS id type x y z c_myKE c_myPE
694040 1 120.384 105.268 85.3686 0.0920089 -6.88488
706587 1 76.6218 97.9696 89.6612 0.0890561 -6.68167
201252 1 152.369 100.743 91.5726 0.121848 -5.49398
777300 1 56.3199 113.646 126.656 0.0813957 -7.86239
784284 1 137.141 127.86 130.28 0.0119116 -7.75874
285009 1 140.727 131.103 130.465 0.157115 -6.99626
796501 1 57.7187 108.778 134.383 0.491885 -6.91146
790101 1 59.6019 110.408 132.684 0.0899748 -7.49913
272125 1 133.449 127.873 134.039 0.181086 -7.80444
784125 1 137.359 131.689 133.754 0.0258172 -7.52477
809888 1 143.769 126.369 137.374 0.180897 -7.13934
291488 1 133.755 131.323 137.461 0.176765 -7.79487
797084 1 135.742 133.184 137.446 0.44691 -7.4897
290926 1 136.222 105.671 139.688 0.234504 -7.73175
809803 1 140.322 126.471 140.479 0.0481789 -6.51784
835733 1 159.682 142.543 153.422 0.481118 -6.47488
836365 1 136.128 168.068 155.6 0.0640382 -6.75492
194528 1 144.09 89.9031 88.0442 0.0894831 -6.74228
201872 1 93.0963 129.31 93.113 0.0795038 -6.23272
233634 1 99.6146 122.948 110.144 0.0124596 -6.58554
246821 1 57.7593 137.676 113.539 0.0245166 -5.94943
265462 1 59.4584 113.327 126.2 0.223009 -7.30686
278261 1 56.0762 113.486 129.332 0.115078 -7.86834
271781 1 58.1061 112.144 128.102 0.271362 -7.85226
278181 1 55.8715 110.356 132.867 0.110993 -7.53372
783781 1 57.7785 112.283 131.366 0.078217 -7.90079
278182 1 61.2 112.041 131.24 0.308707 -7.47692
284929 1 138.873 127.924 132.478 0.0869393 -7.96305
278608 1 142.367 131.19 132.673 0.0658152 -7.54828
802845 1 134.424 103.931 137.687 0.327949 -5.96758
796445 1 137.563 107.182 137.701 0.143675 -6.28666
