ITEM: TIMESTEP
76000
ITEM: NUMBER OF ATOMS
16
ITEM: BOX BOUNDS pp pp pp
0 240
0 240
0 240
ITEM: ATOMS id type x y z c_myKE c_myPE
649724 1 130.984 126.291 62.6851 0.238711 -5.36736
694697 1 174.333 132.74 83.1837 0.0385096 -6.21995
726198 1 115 110.473 97.669 0.0926342 -6.7318
719717 1 115.177 107.65 101.23 0.0893912 -7.43067
732440 1 118.125 110.56 101.136 0.0312988 -6.87952
719878 1 115.205 113.705 100.824 0.0885958 -7.41994
713238 1 111.663 107.403 104.157 0.111063 -7.24024
784029 1 85.0333 121.63 127.969 0.0704182 -6.01484
860586 1 73.8498 113.988 168.411 0.159788 -6.60518
137639 1 115.572 119.849 59.0984 0.285722 -6.57131
213882 1 116.923 109.004 99.404 0.264773 -7.52661
231797 1 109.774 46.6668 108.916 0.106321 -5.63254
232907 1 75.204 90.8553 109.291 0.122328 -6.46117
290737 1 43.4502 102.556 135.737 0.137922 -6.39747
291018 1 177.305 112.022 137.645 0.281131 -6.35468
309946 1 71.0463 102.627 148.627 0.14631 -6.00896
