ITEM: TIMESTEP
82235
ITEM: NUMBER OF ATOMS
32
ITEM: BOX BOUNDS pp pp pp
0 240
0 240
0 240
ITEM: ATOMS id type x y z
245315 1 102.75 78.75 114.75
257870 1 87.75 69.75 120.75
258114 1 99.75 78.75 120.75
277796 1 105.75 96.75 129.75
284677 1 108.75 114.75 132.75
284678 1 111.75 114.75 132.75
297318 1 111.75 108.75 138.75
303642 1 123.75 105.75 141.75
309641 1 120.75 90.75 144.75
328839 1 114.75 90.75 153.75
335800 1 117.75 111.75 156.75
347793 1 96.75 81.75 162.75
359803 1 126.75 51.75 168.75
360360 1 117.75 72.75 168.75
372752 1 93.75 57.75 174.75
436275 1 102.75 39.75 204.75
436516 1 105.75 48.75 204.75
462041 1 120.75 45.75 216.75
474675 1 102.75 39.75 222.75
763472 1 95.25 71.25 119.25
776762 1 125.25 89.25 125.25
789955 1 104.25 104.25 131.25
809316 1 107.25 110.25 140.25
828282 1 125.25 101.25 149.25
834682 1 125.25 101.25 152.25
835238 1 113.25 122.25 152.25
865880 1 119.25 71.25 167.25
878272 1 95.25 56.25 173.25
903798 1 113.25 53.25 185.25
916435 1 104.25 47.25 191.25
961154 1 101.25 44.25 212.25
967553 1 98.25 44.25 215.25
