ITEM: TIMESTEP
99326
ITEM: NUMBER OF ATOMS
60
ITEM: BOX BOUNDS pp pp pp
0 240
0 240
0 240
ITEM: ATOMS id type x y z
201635 1 102.75 120.75 93.75
207393 1 96.75 96.75 96.75
210792 1 213.75 222.75 96.75
214115 1 102.75 108.75 99.75
214120 1 117.75 108.75 99.75
214277 1 108.75 114.75 99.75
223360 1 237.75 213.75 102.75
230238 1 231.75 231.75 105.75
234048 1 141.75 135.75 108.75
236311 1 210.75 219.75 108.75
236397 1 228.75 222.75 108.75
236712 1 213.75 234.75 108.75
242797 1 228.75 222.75 111.75
242875 1 222.75 225.75 111.75
249197 1 228.75 222.75 114.75
249198 1 231.75 222.75 114.75
253164 1 129.75 132.75 117.75
253649 1 144.75 150.75 117.75
254223 1 186.75 171.75 117.75
255360 1 237.75 213.75 117.75
255599 1 234.75 222.75 117.75
268075 1 222.75 210.75 123.75
268480 1 237.75 225.75 123.75
274634 1 219.75 216.75 126.75
274635 1 222.75 216.75 126.75
274636 1 225.75 216.75 126.75
274716 1 225.75 219.75 126.75
274718 1 231.75 219.75 126.75
274720 1 237.75 219.75 126.75
281116 1 225.75 219.75 129.75
281118 1 231.75 219.75 129.75
287034 1 219.75 201.75 132.75
293515 1 222.75 204.75 135.75
719393 1 98.25 98.25 98.25
726035 1 104.25 107.25 101.25
726113 1 98.25 110.25 101.25
742075 1 224.25 227.25 107.25
745882 1 125.25 131.25 110.25
746047 1 140.25 137.25 110.25
746127 1 140.25 140.25 110.25
747833 1 218.25 203.25 110.25
748316 1 227.25 221.25 110.25
748317 1 230.25 221.25 110.25
748396 1 227.25 224.25 110.25
754397 1 230.25 209.25 113.25
754955 1 224.25 230.25 113.25
755119 1 236.25 236.25 113.25
755120 1 239.25 236.25 113.25
761118 1 233.25 221.25 116.25
761198 1 233.25 224.25 116.25
767596 1 227.25 224.25 119.25
773917 1 230.25 221.25 122.25
779023 1 188.25 173.25 125.25
780477 1 230.25 227.25 125.25
780557 1 230.25 230.25 125.25
786639 1 236.25 218.25 128.25
792876 1 227.25 212.25 131.25
799272 1 215.25 212.25 134.25
799678 1 233.25 227.25 134.25
812239 1 236.25 218.25 140.25
