ITEM: TIMESTEP
99000
ITEM: NUMBER OF ATOMS
59
ITEM: BOX BOUNDS pp pp pp
0 240
0 240
0 240
ITEM: ATOMS id type x y z
104757 1 108.75 87.75 48.75
194445 1 132.75 90.75 90.75
240360 1 117.75 132.75 111.75
247324 1 129.75 153.75 114.75
267583 1 186.75 192.75 123.75
273902 1 183.75 189.75 126.75
273981 1 180.75 192.75 126.75
273982 1 183.75 192.75 126.75
280301 1 180.75 189.75 129.75
280382 1 183.75 192.75 129.75
280462 1 183.75 195.75 129.75
287106 1 195.75 204.75 132.75
299827 1 198.75 201.75 138.75
299828 1 201.75 201.75 138.75
299908 1 201.75 204.75 138.75
299987 1 198.75 207.75 138.75
306226 1 195.75 201.75 141.75
306227 1 198.75 201.75 141.75
306547 1 198.75 213.75 141.75
312625 1 192.75 201.75 144.75
312626 1 195.75 201.75 144.75
312627 1 198.75 201.75 144.75
319027 1 198.75 201.75 147.75
344468 1 201.75 195.75 159.75
349895 1 162.75 159.75 162.75
356944 1 189.75 183.75 165.75
357025 1 192.75 186.75 165.75
364468 1 201.75 225.75 168.75
364469 1 204.75 225.75 168.75
364549 1 204.75 228.75 168.75
655239 1 116.25 92.25 68.25
665430 1 209.25 233.25 71.25
707647 1 140.25 137.25 92.25
739312 1 95.25 125.25 107.25
752276 1 107.25 131.25 113.25
752360 1 119.25 134.25 113.25
752923 1 128.25 155.25 113.25
752924 1 131.25 155.25 113.25
759743 1 188.25 170.25 116.25
759822 1 185.25 173.25 116.25
766223 1 188.25 173.25 119.25
771250 1 149.25 122.25 122.25
773101 1 182.25 191.25 122.25
779421 1 182.25 188.25 125.25
779502 1 185.25 191.25 125.25
779582 1 185.25 194.25 125.25
785821 1 182.25 188.25 128.25
805266 1 197.25 197.25 137.25
805345 1 194.25 200.25 137.25
805346 1 197.25 200.25 137.25
805588 1 203.25 209.25 137.25
811745 1 194.25 200.25 140.25
811746 1 197.25 200.25 140.25
811827 1 200.25 203.25 140.25
811989 1 206.25 209.25 140.25
818145 1 194.25 200.25 143.25
818227 1 200.25 203.25 143.25
824705 1 194.25 206.25 146.25
829574 1 161.25 149.25 149.25
