ITEM: TIMESTEP
76000
ITEM: NUMBER OF ATOMS
41
ITEM: BOX BOUNDS pp pp pp
0 240
0 240
0 240
ITEM: ATOMS id type x y z
234018 1 51.75 135.75 108.75
240338 1 51.75 132.75 111.75
283632 1 93.75 75.75 132.75
283711 1 90.75 78.75 132.75
289952 1 93.75 72.75 135.75
290031 1 90.75 75.75 135.75
290032 1 93.75 75.75 135.75
290033 1 96.75 75.75 135.75
290111 1 90.75 78.75 135.75
290189 1 84.75 81.75 135.75
290190 1 87.75 81.75 135.75
290191 1 90.75 81.75 135.75
290268 1 81.75 84.75 135.75
290270 1 87.75 84.75 135.75
296510 1 87.75 78.75 138.75
296669 1 84.75 84.75 138.75
304176 1 45.75 126.75 141.75
328813 1 36.75 90.75 153.75
335375 1 42.75 96.75 156.75
392262 1 63.75 69.75 183.75
406430 1 87.75 120.75 189.75
731645 1 134.25 77.25 104.25
738041 1 122.25 77.25 107.25
738122 1 125.25 80.25 107.25
739536 1 47.25 134.25 107.25
739617 1 50.25 137.25 107.25
744442 1 125.25 77.25 110.25
744521 1 122.25 80.25 110.25
764908 1 83.25 125.25 119.25
795631 1 92.25 77.25 134.25
795790 1 89.25 83.25 134.25
795871 1 92.25 86.25 134.25
801951 1 92.25 74.25 137.25
802028 1 83.25 77.25 137.25
802030 1 89.25 77.25 137.25
802109 1 86.25 80.25 137.25
802110 1 89.25 80.25 137.25
808429 1 86.25 77.25 140.25
808508 1 83.25 80.25 140.25
878996 1 107.25 83.25 173.25
918195 1 104.25 113.25 191.25
