ITEM: TIMESTEP
79000
ITEM: NUMBER OF ATOMS
39
ITEM: BOX BOUNDS pp pp pp
0 240
0 240
0 240
ITEM: ATOMS id type x y z
174524 1 129.75 63.75 81.75
207957 1 108.75 117.75 96.75
213796 1 105.75 96.75 99.75
220357 1 108.75 102.75 102.75
226680 1 117.75 99.75 105.75
232605 1 132.75 81.75 108.75
239003 1 126.75 81.75 111.75
240279 1 114.75 129.75 111.75
246521 1 120.75 123.75 114.75
252437 1 108.75 105.75 117.75
277878 1 111.75 99.75 129.75
278123 1 126.75 108.75 129.75
341556 1 105.75 87.75 159.75
349659 1 174.75 150.75 162.75
362538 1 171.75 153.75 168.75
718680 1 119.25 71.25 98.25
726195 1 104.25 113.25 101.25
726364 1 131.25 119.25 101.25
751635 1 104.25 107.25 113.25
751716 1 107.25 110.25 113.25
751717 1 110.25 110.25 113.25
751718 1 113.25 110.25 113.25
757160 1 119.25 74.25 116.25
757957 1 110.25 104.25 116.25
758437 1 110.25 122.25 116.25
764358 1 113.25 104.25 119.25
764361 1 122.25 104.25 119.25
777157 1 110.25 104.25 125.25
777642 1 125.25 122.25 125.25
783557 1 110.25 104.25 128.25
822529 1 146.25 125.25 146.25
827392 1 95.25 68.25 149.25
835815 1 164.25 143.25 152.25
840756 1 107.25 89.25 155.25
842053 1 158.25 137.25 155.25
842219 1 176.25 143.25 155.25
846996 1 107.25 83.25 158.25
868059 1 176.25 152.25 167.25
881102 1 185.25 161.25 173.25
