ITEM: TIMESTEP
77000
ITEM: NUMBER OF ATOMS
32
ITEM: BOX BOUNDS pp pp pp
0 240
0 240
0 240
ITEM: ATOMS id type x y z
239949 1 84.75 117.75 111.75
245320 1 117.75 78.75 114.75
246286 1 135.75 114.75 114.75
246429 1 84.75 120.75 114.75
260610 1 147.75 171.75 120.75
291396 1 105.75 126.75 135.75
316215 1 162.75 96.75 147.75
324459 1 174.75 165.75 150.75
341406 1 135.75 81.75 159.75
341486 1 135.75 84.75 159.75
347805 1 132.75 81.75 162.75
347886 1 135.75 84.75 162.75
347966 1 135.75 87.75 162.75
378427 1 78.75 30.75 177.75
392749 1 84.75 87.75 183.75
700025 1 74.25 92.25 89.25
750919 1 116.25 80.25 113.25
751412 1 155.25 98.25 113.25
791077 1 110.25 146.25 131.25
809160 1 119.25 104.25 140.25
809714 1 101.25 125.25 140.25
809886 1 137.25 131.25 140.25
816206 1 137.25 128.25 143.25
816285 1 134.25 131.25 143.25
816366 1 137.25 134.25 143.25
822605 1 134.25 128.25 146.25
826427 1 80.25 32.25 149.25
828281 1 122.25 101.25 149.25
834455 1 164.25 92.25 152.25
853404 1 131.25 83.25 161.25
879974 1 161.25 119.25 173.25
883946 1 77.25 29.25 176.25
