ITEM: TIMESTEP
77000
ITEM: NUMBER OF ATOMS
32
ITEM: BOX BOUNDS pp pp pp
0 240
0 240
0 240
ITEM: ATOMS id type x y z
239710 1 87.75 108.75 111.75
239715 1 102.75 108.75 111.75
246112 1 93.75 108.75 114.75
271395 1 102.75 96.75 126.75
277956 1 105.75 102.75 129.75
278036 1 105.75 105.75 129.75
284277 1 108.75 99.75 132.75
284283 1 126.75 99.75 132.75
284286 1 135.75 99.75 132.75
285001 1 120.75 126.75 132.75
290685 1 132.75 99.75 135.75
297083 1 126.75 99.75 138.75
297085 1 132.75 99.75 138.75
298286 1 135.75 144.75 138.75
309080 1 117.75 69.75 144.75
321394 1 99.75 51.75 150.75
340995 1 102.75 66.75 159.75
341238 1 111.75 75.75 159.75
398519 1 114.75 63.75 186.75
719392 1 95.25 98.25 98.25
745072 1 95.25 101.25 110.25
777075 1 104.25 101.25 125.25
777155 1 104.25 104.25 125.25
783567 1 140.25 104.25 128.25
803403 1 128.25 128.25 137.25
808916 1 107.25 95.25 140.25
840194 1 101.25 68.25 155.25
840517 1 110.25 80.25 155.25
852922 1 125.25 65.25 161.25
859155 1 104.25 59.25 164.25
859166 1 137.25 59.25 164.25
878524 1 131.25 65.25 173.25
