ITEM: TIMESTEP
84000
ITEM: NUMBER OF ATOMS
32
ITEM: BOX BOUNDS pp pp pp
0 240
0 240
0 240
ITEM: ATOMS id type x y z
207393 1 96.75 96.75 96.75
207558 1 111.75 102.75 96.75
226598 1 111.75 96.75 105.75
226676 1 105.75 99.75 105.75
252438 1 111.75 105.75 117.75
265478 1 111.75 114.75 123.75
291001 1 120.75 111.75 135.75
291002 1 123.75 111.75 135.75
323721 1 120.75 138.75 150.75
336681 1 120.75 144.75 156.75
342689 1 144.75 129.75 159.75
355489 1 144.75 129.75 165.75
355646 1 135.75 135.75 165.75
355726 1 135.75 138.75 165.75
356050 1 147.75 150.75 165.75
368528 1 141.75 138.75 171.75
368529 1 144.75 138.75 171.75
387720 1 117.75 138.75 180.75
478145 1 192.75 168.75 222.75
719473 1 98.25 101.25 98.25
732274 1 101.25 101.25 104.25
757716 1 107.25 95.25 116.25
803083 1 128.25 116.25 137.25
867968 1 143.25 149.25 167.25
873804 1 131.25 128.25 170.25
874202 1 125.25 143.25 170.25
874365 1 134.25 149.25 170.25
880847 1 140.25 152.25 173.25
893160 1 119.25 134.25 179.25
899963 1 128.25 149.25 182.25
906523 1 128.25 155.25 185.25
983663 1 188.25 167.25 221.25
