ITEM: TIMESTEP
76000
ITEM: NUMBER OF ATOMS
19
ITEM: BOX BOUNDS pp pp pp
0 240
0 240
0 240
ITEM: ATOMS id type x y z
215723 1 126.75 168.75 99.75
215802 1 123.75 171.75 99.75
215804 1 129.75 171.75 99.75
222122 1 123.75 168.75 102.75
222203 1 126.75 171.75 102.75
241338 1 171.75 168.75 111.75
265951 1 90.75 132.75 123.75
304114 1 99.75 123.75 141.75
304195 1 102.75 126.75 141.75
310515 1 102.75 123.75 144.75
649642 1 125.25 122.25 65.25
657621 1 62.25 182.25 68.25
669641 1 122.25 152.25 74.25
707240 1 119.25 122.25 92.25
715084 1 131.25 176.25 95.25
727642 1 125.25 167.25 101.25
796419 1 56.25 107.25 134.25
809090 1 149.25 101.25 140.25
817410 1 149.25 173.25 143.25
