ITEM: TIMESTEP
77000
ITEM: NUMBER OF ATOMS
43
ITEM: BOX BOUNDS pp pp pp
0 240
0 240
0 240
ITEM: ATOMS id type x y z
208442 1 123.75 135.75 96.75
226205 1 132.75 81.75 105.75
227145 1 72.75 117.75 105.75
227313 1 96.75 123.75 105.75
233396 1 105.75 111.75 108.75
233475 1 102.75 114.75 108.75
233629 1 84.75 120.75 108.75
233801 1 120.75 126.75 108.75
233877 1 108.75 129.75 108.75
233958 1 111.75 132.75 108.75
239632 1 93.75 105.75 111.75
239721 1 120.75 108.75 111.75
239791 1 90.75 111.75 111.75
239959 1 114.75 117.75 111.75
240039 1 114.75 120.75 111.75
240040 1 117.75 120.75 111.75
240197 1 108.75 126.75 111.75
241232 1 93.75 165.75 111.75
245877 1 108.75 99.75 114.75
246518 1 111.75 123.75 114.75
246601 1 120.75 126.75 114.75
246680 1 117.75 129.75 114.75
252922 1 123.75 123.75 117.75
252991 1 90.75 126.75 117.75
254112 1 93.75 168.75 117.75
259234 1 99.75 120.75 120.75
732764 1 131.25 119.25 104.25
738437 1 110.25 92.25 107.25
738604 1 131.25 98.25 107.25
739076 1 107.25 116.25 107.25
739081 1 122.25 116.25 107.25
745559 1 116.25 119.25 110.25
745560 1 119.25 119.25 110.25
745795 1 104.25 128.25 110.25
751957 1 110.25 119.25 113.25
751958 1 113.25 119.25 113.25
751960 1 119.25 119.25 113.25
752118 1 113.25 125.25 113.25
753392 1 95.25 173.25 113.25
764753 1 98.25 119.25 119.25
770918 1 113.25 110.25 122.25
770991 1 92.25 113.25 122.25
778043 1 128.25 137.25 125.25
