ITEM: TIMESTEP
78000
ITEM: NUMBER OF ATOMS
36
ITEM: BOX BOUNDS pp pp pp
0 240
0 240
0 240
ITEM: ATOMS id type x y z
144288 1 141.75 129.75 66.75
156369 1 144.75 102.75 72.75
156846 1 135.75 120.75 72.75
162371 1 150.75 87.75 75.75
169090 1 147.75 99.75 78.75
201480 1 117.75 114.75 93.75
201717 1 108.75 123.75 93.75
207399 1 114.75 96.75 96.75
207716 1 105.75 108.75 96.75
214276 1 105.75 114.75 99.75
214439 1 114.75 120.75 99.75
214596 1 105.75 126.75 99.75
220522 1 123.75 108.75 102.75
220917 1 108.75 123.75 102.75
226917 1 108.75 108.75 105.75
226922 1 123.75 108.75 105.75
227156 1 105.75 117.75 105.75
233082 1 123.75 99.75 108.75
233556 1 105.75 117.75 108.75
246197 1 108.75 111.75 114.75
258999 1 114.75 111.75 120.75
329801 1 120.75 126.75 153.75
342763 1 126.75 132.75 159.75
400521 1 120.75 138.75 186.75
649171 1 152.25 104.25 65.25
668370 1 149.25 104.25 74.25
713473 1 98.25 116.25 95.25
725409 1 146.25 83.25 101.25
732596 1 107.25 113.25 104.25
732597 1 110.25 113.25 104.25
732918 1 113.25 125.25 104.25
739154 1 101.25 119.25 107.25
745237 1 110.25 107.25 110.25
751640 1 119.25 107.25 113.25
758198 1 113.25 113.25 116.25
809561 1 122.25 119.25 140.25
