ITEM: TIMESTEP
78000
ITEM: NUMBER OF ATOMS
23
ITEM: BOX BOUNDS pp pp pp
0 240
0 240
0 240
ITEM: ATOMS id type x y z
98543 1 186.75 93.75 45.75
124512 1 93.75 108.75 57.75
124591 1 90.75 111.75 57.75
163652 1 153.75 135.75 75.75
193951 1 90.75 72.75 90.75
202684 1 129.75 159.75 93.75
214681 1 120.75 129.75 99.75
220289 1 144.75 99.75 102.75
221081 1 120.75 129.75 102.75
221161 1 120.75 132.75 102.75
234440 1 117.75 150.75 108.75
279798 1 111.75 171.75 129.75
318598 1 111.75 186.75 147.75
324201 1 120.75 156.75 150.75
726600 1 119.25 128.25 101.25
726670 1 89.25 131.25 101.25
731655 1 164.25 77.25 104.25
732999 1 116.25 128.25 104.25
733081 1 122.25 131.25 104.25
733161 1 122.25 134.25 104.25
739479 1 116.25 131.25 107.25
773402 1 125.25 203.25 122.25
830518 1 113.25 185.25 149.25
