ITEM: TIMESTEP
86000
ITEM: NUMBER OF ATOMS
36
ITEM: BOX BOUNDS pp pp pp
0 240
0 240
0 240
ITEM: ATOMS id type x y z
207393 1 96.75 96.75 96.75
232914 1 99.75 93.75 108.75
232992 1 93.75 96.75 108.75
233072 1 93.75 99.75 108.75
245634 1 99.75 90.75 114.75
357642 1 123.75 210.75 165.75
362757 1 108.75 162.75 168.75
364776 1 165.75 237.75 168.75
375636 1 105.75 165.75 174.75
375962 1 123.75 177.75 174.75
377003 1 126.75 216.75 174.75
377576 1 165.75 237.75 174.75
395966 1 135.75 207.75 183.75
408507 1 78.75 198.75 189.75
413559 1 114.75 147.75 192.75
414516 1 105.75 183.75 192.75
420437 1 108.75 165.75 195.75
433075 1 102.75 159.75 201.75
433316 1 105.75 168.75 201.75
439394 1 99.75 156.75 204.75
757234 1 101.25 77.25 116.25
757474 1 101.25 86.25 116.25
855075 1 104.25 146.25 161.25
863974 1 161.25 239.25 164.25
881645 1 134.25 182.25 173.25
881800 1 119.25 188.25 173.25
888349 1 86.25 194.25 176.25
889012 1 155.25 218.25 176.25
889499 1 176.25 236.25 176.25
894749 1 86.25 194.25 179.25
901564 1 131.25 209.25 182.25
907966 1 137.25 209.25 185.25
914288 1 143.25 206.25 188.25
932193 1 98.25 158.25 197.25
932751 1 92.25 179.25 197.25
939232 1 95.25 182.25 200.25
