ITEM: TIMESTEP
78000
ITEM: NUMBER OF ATOMS
35
ITEM: BOX BOUNDS pp pp pp
0 240
0 240
0 240
ITEM: ATOMS id type x y z c_myKE c_myPE
637165 1 136.407 133.961 54.3993 0.11623 -7.21193
682193 1 97.9357 143.884 78.3007 0.189606 -6.90607
675873 1 94.6576 147.19 78.6541 0.154835 -7.51121
688673 1 97.5599 147.128 81.8668 0.268573 -7.43642
194919 1 115.119 110.986 85.1051 0.150594 -6.62997
702039 1 115.033 169.105 85.9288 0.463263 -6.09743
707004 1 132.701 110.681 94.8431 0.100479 -7.86093
721156 1 105.231 166.213 96.0033 0.108962 -6.41754
214124 1 132.843 107.353 97.973 0.072771 -8.39746
719724 1 135.948 107.633 97.9168 0.115656 -7.60481
719722 1 126.531 110.654 98.0054 0.355217 -7.7003
207804 1 132.561 110.447 97.9195 0.19046 -8.4899
719802 1 126.38 113.74 97.7275 0.126684 -8.10426
719804 1 132.796 113.569 97.8596 0.188075 -7.91932
720417 1 46.6967 137.238 97.9045 0.146645 -6.77121
726202 1 126.447 113.649 101.075 0.0906887 -7.94021
233326 1 137.151 108.397 105.42 0.0798418 -7.28029
796121 1 123.32 94.8771 135.842 0.00937914 -6.39296
125491 1 153.864 147.313 52.9504 0.184385 -6.4875
162600 1 116.875 96.1719 74.0702 0.0725479 -6.09508
682352 1 92.7106 148.514 80.302 0.0308671 -7.70978
183152 1 96.086 148.831 83.4407 0.148153 -7.30422
189550 1 93.0511 151.717 83.4584 0.0936308 -7.61606
695232 1 96.2908 151.777 83.5356 0.203257 -7.50127
201397 1 110.328 110.163 94.5532 0.103629 -6.6413
207805 1 134.319 109.21 96.3988 0.346201 -7.75911
713403 1 128.141 111.838 96.237 0.273176 -7.5345
207884 1 131.169 115.331 96.2514 0.202332 -7.06495
725964 1 130.967 105.785 99.5241 0.0197071 -7.75011
713321 1 127.919 109.056 99.53 0.0552917 -7.7251
726043 1 131.095 108.968 99.6797 0.0329607 -8.1409
726123 1 131.027 112.119 99.3493 0.0429661 -8.47848
726281 1 124.878 115.429 99.5021 0.0070249 -6.74783
214123 1 131.121 108.833 102.791 0.0623732 -8.47644
297145 1 70.7861 100.819 137.911 0.514284 -6.315
