ITEM: TIMESTEP
76313
ITEM: NUMBER OF ATOMS
33
ITEM: BOX BOUNDS pp pp pp
0 240
0 240
0 240
ITEM: ATOMS id type x y z
194692 1 153.75 99.75 90.75
195575 1 162.75 132.75 90.75
214121 1 120.75 108.75 99.75
214353 1 96.75 117.75 99.75
220999 1 114.75 126.75 102.75
227082 1 123.75 114.75 105.75
227401 1 120.75 126.75 105.75
233565 1 132.75 117.75 108.75
234202 1 123.75 141.75 108.75
239473 1 96.75 99.75 111.75
240039 1 114.75 120.75 111.75
240199 1 114.75 126.75 111.75
252588 1 81.75 111.75 117.75
252589 1 84.75 111.75 117.75
258912 1 93.75 108.75 120.75
264670 1 87.75 84.75 123.75
706771 1 152.25 104.25 92.25
712993 1 98.25 98.25 95.25
719330 1 149.25 95.25 98.25
719475 1 104.25 101.25 98.25
719719 1 116.25 110.25 98.25
719815 1 164.25 113.25 98.25
732680 1 119.25 116.25 104.25
733402 1 125.25 143.25 104.25
738669 1 86.25 101.25 107.25
739159 1 116.25 119.25 107.25
739383 1 68.25 128.25 107.25
739399 1 116.25 128.25 107.25
745071 1 92.25 101.25 110.25
746122 1 125.25 140.25 110.25
764192 1 95.25 98.25 119.25
764352 1 95.25 104.25 119.25
776992 1 95.25 98.25 125.25
