ITEM: TIMESTEP
76000
ITEM: NUMBER OF ATOMS
56
ITEM: BOX BOUNDS pp pp pp
0 240
0 240
0 240
ITEM: ATOMS id type x y z
194751 1 90.75 102.75 90.75
194910 1 87.75 108.75 90.75
194924 1 129.75 108.75 90.75
200995 1 102.75 96.75 93.75
213885 1 132.75 99.75 99.75
213968 1 141.75 102.75 99.75
214198 1 111.75 111.75 99.75
226916 1 105.75 108.75 105.75
227081 1 120.75 114.75 105.75
233237 1 108.75 105.75 108.75
233398 1 111.75 111.75 108.75
239639 1 114.75 105.75 111.75
239960 1 117.75 117.75 111.75
246040 1 117.75 105.75 114.75
246284 1 129.75 114.75 114.75
246601 1 120.75 126.75 114.75
252516 1 105.75 108.75 117.75
258839 1 114.75 105.75 120.75
271311 1 90.75 93.75 126.75
271719 1 114.75 108.75 126.75
283946 1 75.75 87.75 132.75
296751 1 90.75 87.75 138.75
296911 1 90.75 93.75 138.75
296991 1 90.75 96.75 138.75
297321 1 120.75 108.75 138.75
303075 1 102.75 84.75 141.75
303228 1 81.75 90.75 141.75
341953 1 96.75 102.75 159.75
368349 1 84.75 132.75 171.75
381068 1 81.75 129.75 177.75
713235 1 104.25 107.25 95.25
725965 1 134.25 104.25 101.25
732441 1 122.25 107.25 104.25
745166 1 137.25 104.25 110.25
745399 1 116.25 113.25 110.25
751717 1 110.25 110.25 113.25
751878 1 113.25 116.25 113.25
764837 1 110.25 122.25 119.25
777322 1 125.25 110.25 125.25
802271 1 92.25 86.25 137.25
802274 1 101.25 86.25 137.25
802431 1 92.25 92.25 137.25
802828 1 83.25 107.25 137.25
808831 1 92.25 92.25 140.25
827548 1 83.25 74.25 149.25
828190 1 89.25 98.25 149.25
835072 1 95.25 116.25 152.25
841076 1 107.25 101.25 155.25
841148 1 83.25 104.25 155.25
847630 1 89.25 107.25 158.25
854748 1 83.25 134.25 161.25
854834 1 101.25 137.25 161.25
874109 1 86.25 140.25 170.25
880189 1 86.25 128.25 173.25
893236 1 107.25 137.25 179.25
912107 1 80.25 125.25 188.25
