ITEM: TIMESTEP
77308
ITEM: NUMBER OF ATOMS
41
ITEM: BOX BOUNDS pp pp pp
0 240
0 240
0 240
ITEM: ATOMS id type x y z
246035 1 102.75 105.75 114.75
252269 1 84.75 99.75 117.75
258753 1 96.75 102.75 120.75
264990 1 87.75 96.75 123.75
265155 1 102.75 102.75 123.75
265229 1 84.75 105.75 123.75
265479 1 114.75 114.75 123.75
266449 1 144.75 150.75 123.75
271315 1 102.75 93.75 126.75
271553 1 96.75 102.75 126.75
277631 1 90.75 90.75 129.75
277715 1 102.75 93.75 129.75
277717 1 108.75 93.75 129.75
277795 1 102.75 96.75 129.75
277874 1 99.75 99.75 129.75
277953 1 96.75 102.75 129.75
277954 1 99.75 102.75 129.75
309707 1 78.75 93.75 144.75
752689 1 146.25 146.25 113.25
752935 1 164.25 155.25 113.25
763628 1 83.25 77.25 119.25
764432 1 95.25 107.25 119.25
764678 1 113.25 116.25 119.25
770514 1 101.25 95.25 122.25
770996 1 107.25 113.25 122.25
776994 1 101.25 98.25 125.25
777075 1 104.25 101.25 125.25
777396 1 107.25 113.25 125.25
777636 1 107.25 122.25 125.25
782829 1 86.25 77.25 128.25
783232 1 95.25 92.25 128.25
783233 1 98.25 92.25 128.25
783388 1 83.25 98.25 128.25
783553 1 98.25 104.25 128.25
789392 1 95.25 83.25 131.25
789873 1 98.25 101.25 131.25
789953 1 98.25 104.25 131.25
789954 1 101.25 104.25 131.25
790029 1 86.25 107.25 131.25
802514 1 101.25 95.25 137.25
815869 1 86.25 116.25 143.25
