ITEM: TIMESTEP
77207
ITEM: NUMBER OF ATOMS
23
ITEM: BOX BOUNDS pp pp pp
0 240
0 240
0 240
ITEM: ATOMS id type x y z
162605 1 132.75 96.75 75.75
195385 1 72.75 126.75 90.75
201784 1 69.75 126.75 93.75
207785 1 72.75 111.75 96.75
208183 1 66.75 126.75 96.75
214265 1 72.75 114.75 99.75
285088 1 141.75 129.75 132.75
285169 1 144.75 132.75 132.75
291568 1 141.75 132.75 135.75
303390 1 87.75 96.75 141.75
661636 1 107.25 92.25 71.25
713703 1 68.25 125.25 95.25
713784 1 71.25 128.25 95.25
720103 1 68.25 125.25 98.25
720271 1 92.25 131.25 98.25
720352 1 95.25 134.25 98.25
725577 1 170.25 89.25 101.25
726591 1 92.25 128.25 101.25
726672 1 95.25 131.25 101.25
738034 1 101.25 77.25 107.25
765305 1 74.25 140.25 119.25
770423 1 68.25 92.25 122.25
777405 1 134.25 113.25 125.25
