ITEM: TIMESTEP
76000
ITEM: NUMBER OF ATOMS
41
ITEM: BOX BOUNDS pp pp pp
0 240
0 240
0 240
ITEM: ATOMS id type x y z
130439 1 114.75 90.75 60.75
163320 1 117.75 123.75 75.75
163326 1 135.75 123.75 75.75
193483 1 126.75 54.75 90.75
208602 1 123.75 141.75 96.75
220984 1 69.75 126.75 102.75
220985 1 72.75 126.75 102.75
221876 1 105.75 159.75 102.75
227384 1 69.75 126.75 105.75
227465 1 72.75 129.75 105.75
227546 1 75.75 132.75 105.75
228357 1 108.75 162.75 105.75
233945 1 72.75 132.75 108.75
233946 1 75.75 132.75 108.75
239635 1 102.75 105.75 111.75
240267 1 78.75 129.75 111.75
246123 1 126.75 108.75 114.75
246665 1 72.75 129.75 114.75
247571 1 150.75 162.75 114.75
247952 1 93.75 177.75 114.75
248031 1 90.75 180.75 114.75
254351 1 90.75 177.75 117.75
254432 1 93.75 180.75 117.75
260929 1 144.75 183.75 120.75
316281 1 120.75 99.75 147.75
322682 1 123.75 99.75 150.75
668340 1 59.25 104.25 74.25
713809 1 146.25 128.25 95.25
733876 1 107.25 161.25 104.25
739876 1 107.25 146.25 107.25
745244 1 131.25 107.25 110.25
745865 1 74.25 131.25 110.25
745866 1 77.25 131.25 110.25
746850 1 149.25 167.25 110.25
753016 1 167.25 158.25 113.25
753170 1 149.25 164.25 113.25
759229 1 86.25 152.25 116.25
759952 1 95.25 179.25 116.25
791404 1 131.25 158.25 131.25
804112 1 95.25 155.25 137.25
809953 1 98.25 134.25 140.25
