ITEM: TIMESTEP
77279
ITEM: NUMBER OF ATOMS
24
ITEM: BOX BOUNDS pp pp pp
0 240
0 240
0 240
ITEM: ATOMS id type x y z
207393 1 96.75 96.75 96.75
220918 1 111.75 123.75 102.75
252354 1 99.75 102.75 117.75
259394 1 99.75 126.75 120.75
259404 1 129.75 126.75 120.75
271472 1 93.75 99.75 126.75
291563 1 126.75 132.75 135.75
297888 1 141.75 129.75 138.75
304528 1 141.75 138.75 141.75
317562 1 123.75 147.75 147.75
317565 1 132.75 147.75 147.75
323888 1 141.75 144.75 150.75
738435 1 104.25 92.25 107.25
758034 1 101.25 107.25 116.25
764352 1 95.25 104.25 119.25
777964 1 131.25 134.25 125.25
802604 1 131.25 98.25 137.25
803331 1 152.25 125.25 137.25
803408 1 143.25 128.25 137.25
809408 1 143.25 113.25 140.25
809561 1 122.25 119.25 140.25
815886 1 137.25 116.25 143.25
823083 1 128.25 146.25 146.25
860999 1 116.25 128.25 164.25
