ITEM: TIMESTEP
78000
ITEM: NUMBER OF ATOMS
47
ITEM: BOX BOUNDS pp pp pp
0 240
0 240
0 240
ITEM: ATOMS id type x y z c_myKE c_myPE
701074 1 102.506 134.224 88.2412 0.15779 -6.94484
739794 1 101.125 145.8 105.259 0.165383 -7.46011
738439 1 118.23 91.6367 107.7 0.223969 -6.455
745803 1 129.639 127.838 111.915 0.13472 -6.51638
753636 1 105.192 185.308 111.905 0.0799233 -6.76116
750994 1 98.8951 79.9544 113.576 0.279281 -6.80287
750995 1 102.728 79.9395 113.776 0.0987404 -6.52097
803167 1 142.357 119.975 139.479 0.106074 -6.32707
809727 1 140.294 124.851 140.4 0.0651491 -7.21659
815558 1 111.788 102.496 143.447 0.455037 -6.89318
809806 1 139.065 126.773 142.457 0.301493 -7.76832
817720 1 120.271 190.56 143.549 0.145415 -6.9207
828904 1 67.3915 124.605 152.116 0.154936 -6.97743
336684 1 130.834 143.898 158.274 0.124112 -6.86616
848605 1 134.097 143.558 158.656 0.0476918 -7.14099
355886 1 140.699 148.645 171.159 0.094505 -6.46463
874286 1 139.406 150.018 175.622 0.134313 -7.20086
900418 1 50.1055 169.313 185.141 0.0217857 -6.74693
720192 1 97.5145 132.74 92.8504 0.270036 -6.96827
215304 1 67.2421 154.83 97.5749 0.0549899 -6.90039
215388 1 78.4254 159.958 97.3665 0.244661 -6.75605
234195 1 102.556 144.282 107.121 0.0572933 -7.24463
739956 1 107.143 148.536 105.928 0.116927 -6.65918
750830 1 84.8572 73.9999 113.356 0.0432089 -6.5041
238995 1 100.658 78.4177 112.151 0.261079 -7.60722
241635 1 102.637 185.851 112.395 0.378724 -6.85656
245474 1 97.5442 81.9133 115.282 0.00484299 -7.54064
266583 1 63.9564 157.546 123.159 0.0884005 -6.66525
266584 1 67.4114 159.893 123.022 0.44748 -7.26889
272904 1 68.8088 157.393 126.345 0.136838 -6.46921
279213 1 30.4906 151.762 129.673 0.122269 -6.17938
273546 1 72.0046 182.405 128.297 0.0615372 -6.41398
273625 1 68.819 185.509 127.85 0.136677 -7.1917
310038 1 110.065 103.696 145.401 0.182022 -6.8392
817634 1 97.6986 183.736 145.389 0.299516 -5.97189
312432 1 92.8748 202.155 145.471 0.00906165 -7.04176
310586 1 72.2643 126.022 147.292 0.261456 -6.44623
329634 1 97.8143 119.212 155.044 0.306185 -5.84826
330205 1 132.794 142.231 156.763 0.299918 -6.92357
349775 1 38.8005 158.208 163.906 0.181741 -7.76153
343374 1 35.3363 161.136 163.491 0.14993 -6.30509
349855 1 38.823 159.9 166.111 0.00266454 -6.95528
362286 1 137.709 148.735 174.205 0.0420371 -6.70163
375788 1 80.3782 175.673 179.147 0.0302682 -7.10281
382268 1 80.6178 179.143 182.264 0.0746815 -7.17727
407850 1 21.072 179.259 195.484 0.142051 -6.68171
425867 1 74.7191 131.647 204.552 0.232954 -7.02636
