ITEM: TIMESTEP
75000
ITEM: NUMBER OF ATOMS
63
ITEM: BOX BOUNDS pp pp pp
0 240
0 240
0 240
ITEM: ATOMS id type x y z
193632 1 93.75 60.75 90.75
218990 1 87.75 51.75 102.75
220752 1 93.75 117.75 102.75
220833 1 96.75 120.75 102.75
225951 1 90.75 72.75 105.75
227153 1 96.75 117.75 105.75
233795 1 102.75 126.75 108.75
238428 1 81.75 60.75 111.75
239478 1 111.75 99.75 111.75
239562 1 123.75 102.75 111.75
240034 1 99.75 120.75 111.75
245719 1 114.75 93.75 114.75
245720 1 117.75 93.75 114.75
245799 1 114.75 96.75 114.75
245800 1 117.75 96.75 114.75
245878 1 111.75 99.75 114.75
251551 1 90.75 72.75 117.75
252037 1 108.75 90.75 117.75
252119 1 114.75 93.75 117.75
252120 1 117.75 93.75 117.75
252199 1 114.75 96.75 117.75
252200 1 117.75 96.75 117.75
252360 1 117.75 102.75 117.75
264352 1 93.75 72.75 123.75
264431 1 90.75 75.75 123.75
264595 1 102.75 81.75 123.75
264999 1 114.75 96.75 123.75
265398 1 111.75 111.75 123.75
270674 1 99.75 69.75 126.75
270834 1 99.75 75.75 126.75
271477 1 108.75 99.75 126.75
271557 1 108.75 102.75 126.75
284202 1 123.75 96.75 132.75
290367 1 138.75 87.75 135.75
290596 1 105.75 96.75 135.75
309727 1 138.75 93.75 144.75
342128 1 141.75 108.75 159.75
361090 1 147.75 99.75 168.75
731469 1 86.25 71.25 104.25
738917 1 110.25 110.25 107.25
744919 1 116.25 95.25 110.25
745242 1 125.25 107.25 110.25
750834 1 101.25 77.25 113.25
751401 1 122.25 98.25 113.25
757478 1 113.25 86.25 116.25
757719 1 116.25 95.25 116.25
757799 1 116.25 98.25 116.25
764212 1 155.25 98.25 119.25
764278 1 113.25 101.25 119.25
769711 1 92.25 65.25 122.25
770032 1 95.25 77.25 122.25
770035 1 104.25 77.25 122.25
770360 1 119.25 89.25 122.25
770679 1 116.25 101.25 122.25
777158 1 113.25 104.25 125.25
782595 1 104.25 68.25 128.25
783077 1 110.25 86.25 128.25
808849 1 146.25 92.25 140.25
834450 1 149.25 92.25 152.25
853733 1 158.25 95.25 161.25
853814 1 161.25 98.25 161.25
860208 1 143.25 98.25 164.25
872932 1 155.25 95.25 170.25
