ITEM: TIMESTEP
77000
ITEM: NUMBER OF ATOMS
18
ITEM: BOX BOUNDS pp pp pp
0 240
0 240
0 240
ITEM: ATOMS id type x y z c_myKE c_myPE
674668 1 82.182 99.0915 75.6257 0.103691 -7.06105
687309 1 83.2307 94.863 79.6879 0.056362 -6.88824
721876 1 105.641 196.58 95.9581 0.121113 -6.63981
234194 1 100.949 147.162 105.676 0.400087 -7.4971
752752 1 95.612 147.278 107.063 0.285586 -8.07108
746513 1 97.378 149.187 107.429 0.0195527 -7.59772
733475 1 101.008 150.344 108.578 0.298332 -7.41457
234433 1 99.3689 147.192 110.821 0.138043 -7.53783
247235 1 100.824 149.317 111.44 0.160864 -7.5714
765550 1 85.0521 148.859 117.079 0.266408 -6.52627
770194 1 99.3594 79.9727 121.525 0.489255 -6.62817
829071 1 91.7337 130.843 151.796 0.104228 -7.00656
234115 1 99.4552 145.36 106.961 0.582206 -7.1443
240939 1 178.876 154.889 110.258 0.196116 -5.84482
248187 1 77.0554 191.744 113.541 0.393091 -6.33663
298911 1 90.0961 173.088 140.86 0.103096 -6.89824
305391 1 89.8877 176.084 143.915 0.587243 -6.56437
310750 1 87.0704 132.404 147.274 0.128833 -6.59096
