ITEM: TIMESTEP
78204
ITEM: NUMBER OF ATOMS
46
ITEM: BOX BOUNDS pp pp pp
0 240
0 240
0 240
ITEM: ATOMS id type x y z c_myKE c_myPE
668200 1 120.034 95.7679 70.5278 0 -6.54356
681392 1 94.5864 111.797 76.9746 0 -6.75525
681472 1 94.5496 115.107 76.6067 0 -6.91679
694122 1 124.764 110.741 85.0272 0 -7.07977
720857 1 172.485 153.314 95.8814 0 -6.25966
744765 1 136.141 88.2453 108.641 0 -6.2574
234059 1 179.036 134.519 108.329 0 -8.05381
751970 1 149.766 116.757 110.386 0 -6.59285
732849 1 147.421 120.149 111.833 0 -8.27832
752296 1 175.349 134.53 112.018 0 -8.06265
746059 1 179.033 136.414 110.227 0 -8.06032
240780 1 178.522 148.85 110.546 0 -7.213
758291 1 149.372 120.176 113.725 0 -7.93653
758528 1 147.306 123.572 115.396 0 -8.21377
246454 1 159.877 123.291 114.935 0 -6.57226
253013 1 156.57 126.65 114.94 0 -7.57709
752299 1 180.757 131.017 113.743 0 -7.6566
252769 1 143.797 118.31 117.408 0 -7.58726
240049 1 147.321 121.771 117.28 0 -7.66806
764933 1 159.848 126.655 118.315 0 -6.58571
758598 1 113.769 130.992 118.252 0 -6.81872
759113 1 225.45 148.873 116.985 0 -6.255
265878 1 110.513 130.867 121.51 0 -6.54402
803557 1 110.608 136.126 139.324 0 -6.25594
156281 1 121.806 97.3544 68.757 0 -6.82273
175873 1 96.3325 113.562 78.4704 0 -7.04543
183182 1 186.831 150.46 81.5443 0 -6.82304
189502 1 186.722 147.198 84.7979 0 -6.53788
188522 1 123.107 109.259 86.5514 0 -6.87165
188523 1 126.134 108.978 86.7653 0 -7.05584
202368 1 144.082 150.57 91.1169 0 -6.97117
208767 1 140.717 150.41 94.2633 0 -6.64675
208848 1 144.036 153.582 94.1886 0 -7.17585
208929 1 147.361 156.889 94.2595 0 -7.60781
215249 1 147.37 153.56 97.5952 0 -6.58811
232449 1 147.304 73.904 109 0 -6.25509
745648 1 145.625 119.977 109.89 0 -8.11173
240698 1 177.087 147.188 108.883 0 -6.73518
246529 1 145.614 116.365 113.693 0 -8.14594
758445 1 141.936 118.23 111.878 0 -8.07512
253009 1 147.315 125.523 113.559 0 -7.64846
240779 1 176.145 152.313 112.21 0 -7.04192
746218 1 180.504 150.521 112.255 0 -7.04352
246449 1 145.464 125.515 115.406 0 -7.64635
329410 1 148.567 110.264 158.11 0 -6.81923
335730 1 150.473 108.991 160.042 0 -6.82066
