ITEM: TIMESTEP
79000
ITEM: NUMBER OF ATOMS
34
ITEM: BOX BOUNDS pp pp pp
0 240
0 240
0 240
ITEM: ATOMS id type x y z c_myKE c_myPE
219883 1 127.817 85.8915 100.957 0.589296 -6.57168
751645 1 136.007 105.496 111.982 0.319387 -7.57625
751724 1 132.864 108.897 111.622 0.0494853 -6.44669
758044 1 133.214 105.758 115.362 0.237099 -7.01967
284041 1 121.538 92.8513 132.801 0.0984332 -6.33534
801950 1 87.9805 70.2849 137.378 0.73107 -7.03701
802677 1 108.906 100.816 137.368 0.041111 -6.88591
802756 1 105.693 103.973 137.334 0.104983 -6.23854
808592 1 91.441 81.8764 140.9 0.0470081 -7.78378
815072 1 91.2088 85.1134 140.675 0.246311 -7.7025
821314 1 94.5159 78.4601 143.717 0.287625 -7.24324
809558 1 111.763 120.307 142.354 0.243671 -6.01932
827712 1 94.5133 78.5387 146.942 0.193118 -7.68952
309473 1 97.7359 82.0398 146.996 0.0461553 -7.34271
359779 1 47.7431 47.1863 171.229 0.0400256 -6.79076
871697 1 45.1051 48.4747 174.866 0.0695123 -7.13614
897788 1 75.7041 60.8241 185.117 0.549024 -6.37883
929460 1 54.3728 53.1302 202.792 0.0973643 -6.77096
256410 1 20.8583 10.1323 119.681 0.109872 -6.51396
283803 1 128.213 80.1387 134.413 0.0619345 -6.64603
283882 1 125.364 83.3392 134.416 0.356903 -6.32784
802351 1 89.8663 83.5121 139.25 0.102317 -7.37362
290283 1 128.479 83.6562 137.562 0.133068 -7.26506
302993 1 93.1265 80.2756 142.274 0.17198 -7.87868
802192 1 92.9644 83.5645 142.434 0.176172 -8.48654
303151 1 89.8529 86.6013 142.206 0.0504733 -7.06882
309313 1 93.1391 80.2137 145.214 0.0304417 -8.04311
309393 1 89.8051 83.5949 145.293 0.109255 -6.78706
322521 1 121.665 93.1612 151.522 0.0926502 -6.58144
872349 1 86.4913 73.9328 176.008 0.685936 -6.81414
366910 1 89.9196 76.9215 175.666 0.228327 -7.57047
897397 1 109.065 46.4157 185.753 0.032304 -6.33967
898993 1 100.651 113.421 186.971 0.0767193 -5.94703
468835 1 102.622 57.7993 225.083 0.440607 -6.31898
