ITEM: TIMESTEP
80000
ITEM: NUMBER OF ATOMS
31
ITEM: BOX BOUNDS pp pp pp
0 240
0 240
0 240
ITEM: ATOMS id type x y z c_myKE c_myPE
689162 1 126.006 166.252 82.3417 0.0429093 -5.62528
732420 1 56.2718 105.791 102.066 0.154973 -6.06495
732213 1 159.864 97.7355 104.17 0.518183 -6.31206
745071 1 89.6702 98.723 108.315 0.0550875 -7.25109
752690 1 152.16 146.965 111.871 0.00194402 -7.58108
752769 1 148.828 150.01 111.944 0.251277 -6.5763
796834 1 100.773 123.218 136.026 0.00928761 -6.64217
809222 1 62.883 107.271 142.356 0.285877 -7.04956
828924 1 130.945 124.406 153.206 0.138709 -6.81192
835620 1 56.4629 139.21 153.399 0.159627 -6.46772
853634 1 98.9598 89.4932 165.098 0.205971 -7.49743
925264 1 195.19 137.465 197.961 0.0527057 -5.8313
414051 1 150.247 169.057 199.783 0.246478 -6.40341
259315 1 99.5982 121.654 128.255 0.143953 -7.28526
783873 1 99.639 118.485 131.347 0.103643 -7.31313
278433 1 96.311 121.879 131.314 0.142004 -6.86489
284995 1 100.854 126.305 132.83 0.0176344 -6.20821
289472 1 91.4191 51.9271 135.974 0.287023 -5.76017
296846 1 135.879 89.9528 139.289 0.185425 -6.05132
303624 1 64.4647 105.974 144.182 0.23143 -7.16807
317334 1 161.547 141.779 148.656 0.185256 -6.99353
323893 1 159.936 145.108 151.351 0.148972 -6.57514
317782 1 59.4767 160.076 151.766 0.0703904 -6.43486
330520 1 120.075 158.16 155.012 0.0370307 -7.19374
335949 1 83.3811 118.544 159.955 0.154832 -6.69914
342350 1 86.6344 118.608 163.016 0.536645 -6.71262
854444 1 129.325 121.826 164.489 0.143008 -6.13075
342758 1 112.404 132.671 163.092 0.0986603 -6.1831
880928 1 145.17 156.841 174.049 0.207697 -6.57888
926050 1 151.693 170.769 201.566 0.184557 -7.10265
426931 1 153.615 172.767 202.351 0.0842744 -7.20304
