ITEM: TIMESTEP
78331
ITEM: NUMBER OF ATOMS
25
ITEM: BOX BOUNDS pp pp pp
0 240
0 240
0 240
ITEM: ATOMS id type x y z
213794 1 99.75 96.75 99.75
220278 1 111.75 99.75 102.75
226601 1 120.75 96.75 105.75
239561 1 120.75 102.75 111.75
239872 1 93.75 114.75 111.75
240030 1 87.75 120.75 111.75
246511 1 90.75 123.75 114.75
278677 1 108.75 129.75 129.75
284449 1 144.75 105.75 132.75
304362 1 123.75 132.75 141.75
329725 1 132.75 123.75 153.75
329970 1 147.75 132.75 153.75
342451 1 150.75 120.75 159.75
361890 1 147.75 129.75 168.75
725720 1 119.25 95.25 101.25
744840 1 119.25 92.25 110.25
751079 1 116.25 86.25 113.25
751951 1 92.25 119.25 113.25
764674 1 101.25 116.25 119.25
828452 1 155.25 107.25 149.25
847810 1 149.25 113.25 158.25
848051 1 152.25 122.25 158.25
848370 1 149.25 134.25 158.25
854693 1 158.25 131.25 161.25
854698 1 173.25 131.25 161.25
