ITEM: TIMESTEP
78000
ITEM: NUMBER OF ATOMS
34
ITEM: BOX BOUNDS pp pp pp
0 240
0 240
0 240
ITEM: ATOMS id type x y z
175935 1 42.75 117.75 81.75
194587 1 78.75 96.75 90.75
194590 1 87.75 96.75 90.75
194668 1 81.75 99.75 90.75
201069 1 84.75 99.75 93.75
201149 1 84.75 102.75 93.75
201231 1 90.75 105.75 93.75
213472 1 93.75 84.75 99.75
219792 1 93.75 81.75 102.75
277393 1 96.75 81.75 129.75
296921 1 120.75 93.75 138.75
304776 1 165.75 147.75 141.75
361230 1 87.75 105.75 168.75
361308 1 81.75 108.75 168.75
374847 1 138.75 135.75 174.75
386751 1 90.75 102.75 180.75
412900 1 57.75 123.75 192.75
419220 1 57.75 120.75 195.75
424662 1 63.75 84.75 198.75
706588 1 83.25 98.25 92.25
706589 1 86.25 98.25 92.25
706668 1 83.25 101.25 92.25
745794 1 101.25 128.25 110.25
794990 1 89.25 53.25 134.25
796119 1 116.25 95.25 134.25
854424 1 71.25 122.25 161.25
860348 1 83.25 104.25 164.25
866830 1 89.25 107.25 167.25
866909 1 86.25 110.25 167.25
880288 1 143.25 131.25 173.25
880446 1 137.25 137.25 173.25
886687 1 140.25 131.25 176.25
924892 1 35.25 125.25 194.25
931293 1 38.25 125.25 197.25
