ITEM: TIMESTEP
75000
ITEM: NUMBER OF ATOMS
22
ITEM: BOX BOUNDS pp pp pp
0 240
0 240
0 240
ITEM: ATOMS id type x y z c_myKE c_myPE
730753 1 95.5281 38.3326 101.208 0.40319 -6.84897
239234 1 102.173 81.9508 114.978 0.573525 -7.31757
757235 1 102.236 78.6607 118.323 0.260622 -6.71689
251794 1 98.9573 82.0031 118.428 0.122372 -6.74754
239717 1 103.979 104.1 118.275 0.0240114 -6.99816
783634 1 97.8137 107.329 121.491 0.462665 -6.80254
265877 1 101.081 127.832 123.127 0.261076 -6.08441
278195 1 107.364 104.309 127.791 0.228258 -6.256
784113 1 101.054 124.645 126.689 0.404178 -6.47791
272116 1 104.343 127.746 126.462 0.0266308 -6.52434
826675 1 104.412 37.1795 150.014 0.0581871 -6.61678
193390 1 84.8685 46.4089 86.8402 0.0214393 -6.13769
200358 1 112.018 70.9983 90.8904 0.0653827 -6.74885
214757 1 108.989 134.53 97.5423 0.0271123 -5.78574
226976 1 40.3014 111.853 103.643 0.123409 -6.38593
764276 1 102.902 99.5393 116.806 0.33684 -6.94115
758115 1 105.743 102.756 116.552 0.156541 -7.51505
770753 1 99.3896 102.797 122.827 0.0464971 -7.37611
758111 1 99.5139 105.651 123.28 0.114086 -6.90903
265075 1 102.446 105.701 122.976 0.0209667 -7.22384
265395 1 105.741 108.951 123.004 0.504209 -7.3095
790114 1 106.106 106.005 126.323 0.0261676 -7.23187
