ITEM: TIMESTEP
79000
ITEM: NUMBER OF ATOMS
28
ITEM: BOX BOUNDS pp pp pp
0 240
0 240
0 240
ITEM: ATOMS id type x y z
239635 1 102.75 105.75 111.75
253005 1 132.75 126.75 117.75
258759 1 114.75 102.75 120.75
265227 1 78.75 105.75 123.75
310509 1 84.75 123.75 144.75
323392 1 93.75 126.75 150.75
336108 1 81.75 123.75 156.75
342436 1 105.75 120.75 159.75
387383 1 66.75 126.75 180.75
719315 1 104.25 95.25 98.25
771477 1 110.25 131.25 122.25
771562 1 125.25 134.25 122.25
784433 1 98.25 137.25 128.25
790767 1 140.25 134.25 131.25
822350 1 89.25 119.25 146.25
822511 1 92.25 125.25 146.25
822514 1 101.25 125.25 146.25
828832 1 95.25 122.25 149.25
829071 1 92.25 131.25 149.25
835232 1 95.25 122.25 152.25
841311 1 92.25 110.25 155.25
841549 1 86.25 119.25 155.25
841876 1 107.25 131.25 155.25
848036 1 107.25 122.25 158.25
854428 1 83.25 122.25 161.25
892743 1 68.25 119.25 179.25
899141 1 62.25 119.25 182.25
924822 1 65.25 122.25 194.25
