ITEM: TIMESTEP
77637
ITEM: NUMBER OF ATOMS
35
ITEM: BOX BOUNDS pp pp pp
0 240
0 240
0 240
ITEM: ATOMS id type x y z c_myKE c_myPE
603170 1 150.122 54.4264 38.4751 0 -6.2549
667484 1 132.908 67.199 72.3313 0 -6.834
667563 1 129.65 70.451 72.4202 0 -6.54436
699563 1 127.751 72.4477 86.2854 0 -7.20238
699723 1 127.976 75.484 89.6974 0 -8.03672
699643 1 131.078 75.6771 89.5999 0 -8.18613
706282 1 126.509 76.8196 91.4915 0 -7.98049
706203 1 129.577 80.0717 91.4268 0 -7.3452
707312 1 94.6387 124.604 91.4523 0 -6.25601
720263 1 64.0735 131.108 95.6292 0 -6.8676
720264 1 67.1039 130.893 95.9193 0 -7.03705
757724 1 130.984 94.6249 115.006 0 -6.25496
240043 1 134.371 129.532 114.641 0 -8.06409
758097 1 44.855 108.651 116.972 0 -6.25421
253163 1 130.657 131.214 116.644 0 -7.96406
187643 1 129.61 74.0734 88.0018 0 -7.40545
188109 1 83.4611 93.0536 86.6636 0 -6.25468
706122 1 126.234 74.0202 91.2964 0 -7.06985
706283 1 128.015 78.4405 89.7244 0 -7.98044
200683 1 131.317 78.4932 89.7624 0 -7.81405
208344 1 65.73 132.632 94.1472 0 -7.06667
202280 1 116.616 147.279 93.0374 0 -6.25342
233804 1 132.581 131.361 99.3803 0 -6.26
232667 1 77.051 81.5778 103.902 0 -7.3734
219946 1 73.9634 84.6641 102.675 0 -6.28568
744587 1 75.1931 81.5778 105.761 0 -7.3733
226267 1 77.0514 83.4363 105.761 0 -7.37329
253086 1 136.19 129.565 116.524 0 -8.20675
246766 1 135.858 135.3 115.255 0 -6.89994
259406 1 136.086 125.932 120.118 0 -8.01856
253007 1 138.084 129.564 118.348 0 -8.06048
239399 1 113.428 99.4218 121.745 0 -6.25532
758525 1 134.304 129.491 122.197 0 -7.99025
285018 1 174.192 125.613 134.35 0 -6.43103
297967 1 138.936 134.511 140.879 0 -6.25267
