ITEM: TIMESTEP
75196
ITEM: NUMBER OF ATOMS
28
ITEM: BOX BOUNDS pp pp pp
0 240
0 240
0 240
ITEM: ATOMS id type x y z
200601 1 120.75 81.75 93.75
214197 1 108.75 111.75 99.75
214271 1 90.75 114.75 99.75
214764 1 129.75 132.75 99.75
219322 1 123.75 63.75 102.75
220514 1 99.75 108.75 102.75
227311 1 90.75 123.75 105.75
227318 1 111.75 123.75 105.75
233233 1 96.75 105.75 108.75
238914 1 99.75 78.75 111.75
239003 1 126.75 81.75 111.75
239476 1 105.75 99.75 111.75
245395 1 102.75 81.75 114.75
251880 1 117.75 84.75 117.75
694527 1 140.25 125.25 86.25
712121 1 122.25 65.25 95.25
719871 1 92.25 116.25 98.25
731878 1 113.25 86.25 104.25
731958 1 113.25 89.25 104.25
732755 1 104.25 119.25 104.25
739244 1 131.25 122.25 107.25
739316 1 107.25 125.25 107.25
744915 1 104.25 95.25 110.25
750919 1 116.25 80.25 113.25
758365 1 134.25 119.25 116.25
763556 1 107.25 74.25 119.25
770114 1 101.25 80.25 122.25
777322 1 125.25 110.25 125.25
