ITEM: TIMESTEP
82000
ITEM: NUMBER OF ATOMS
37
ITEM: BOX BOUNDS pp pp pp
0 240
0 240
0 240
ITEM: ATOMS id type x y z c_myKE c_myPE
707471 1 91.9012 132.689 90.033 0.122565 -5.74908
707472 1 94.8387 132.781 89.7179 0.124781 -7.08699
727149 1 84.9394 151.651 101.184 0.422294 -7.05716
750835 1 104.197 73.8348 112.015 0.204891 -7.48209
744435 1 102.239 75.5192 110.949 0.0612806 -6.51215
770371 1 155.129 88.3839 121.566 0.0772253 -6.80854
783024 1 196.591 81.9223 127.31 0.0665212 -6.26846
789323 1 129.513 78.6453 131.162 0.0227368 -6.24214
840604 1 140.315 81.5938 153.21 0.263114 -7.4848
827806 1 144.071 85.5895 151.747 0.485593 -7.34899
834359 1 117.089 89.5943 155.259 0.256292 -7.02163
860701 1 186.866 114.952 167.708 0.0173035 -6.11406
879409 1 148.962 95.9839 175.468 0.413091 -6.59277
885496 1 170.978 83.4442 178.713 0.073745 -7.33705
885575 1 168.017 86.3128 178.471 0.133225 -6.76322
885278 1 241.572 75.3417 180.648 0.0829147 -6.54467
905022 1 188.341 97.603 188.285 0.111768 -6.57447
923507 1 202.866 66.881 197.698 0.0216849 -7.17528
993747 1 204.415 59.4447 231.907 0.17044 -6.52444
201952 1 93.4677 134.659 91.0541 0.257538 -7.03306
207080 1 116.484 81.2967 94.2844 0.153935 -6.75564
207800 1 118.594 110.179 96.3189 0.106397 -6.55205
215068 1 80.5416 146.925 99.7335 0.563392 -6.46298
215230 1 86.7531 153.227 99.4822 0.0792113 -6.56694
251795 1 102.62 78.3143 117.001 0.402123 -6.34718
278758 1 109.123 129.522 123.047 0.126231 -6.63526
278595 1 105.776 129.265 126.09 0.00116102 -6.37633
310199 1 115.546 110.268 145.204 0.105898 -6.71849
322287 1 137.535 83.2729 150.636 0.0941319 -7.51181
322367 1 141.38 85.4135 151.402 0.127578 -7.35998
316047 1 140.641 87.7145 150.2 0.0847965 -7.44781
834125 1 137.986 83.1062 153.296 0.124636 -7.65151
328686 1 140.283 84.2347 153.692 0.143495 -7.86302
360297 1 170.782 67.3906 170.056 0.159636 -6.00983
379897 1 172.625 81.4445 180.129 0.213399 -7.40585
411428 1 207.884 62.6409 196.399 0.509478 -7.38129
425187 1 202.767 102.3 204.806 0.186523 -6.47306
