ITEM: TIMESTEP
76000
ITEM: NUMBER OF ATOMS
60
ITEM: BOX BOUNDS pp pp pp
0 240
0 240
0 240
ITEM: ATOMS id type x y z
169484 1 129.75 114.75 78.75
175481 1 120.75 99.75 81.75
175642 1 123.75 105.75 81.75
181959 1 114.75 102.75 84.75
188363 1 126.75 102.75 87.75
188440 1 117.75 105.75 87.75
194842 1 123.75 105.75 90.75
194843 1 126.75 105.75 90.75
195002 1 123.75 111.75 90.75
195003 1 126.75 111.75 90.75
195159 1 114.75 117.75 90.75
200922 1 123.75 93.75 93.75
201243 1 126.75 105.75 93.75
207716 1 105.75 108.75 96.75
207727 1 138.75 108.75 96.75
213961 1 120.75 102.75 99.75
214043 1 126.75 105.75 99.75
214044 1 129.75 105.75 99.75
214120 1 117.75 108.75 99.75
214123 1 126.75 108.75 99.75
214127 1 138.75 108.75 99.75
214205 1 132.75 111.75 99.75
220439 1 114.75 105.75 102.75
220449 1 144.75 105.75 102.75
226765 1 132.75 102.75 105.75
233161 1 120.75 102.75 108.75
239479 1 114.75 99.75 111.75
278141 1 180.75 108.75 129.75
303150 1 87.75 87.75 141.75
315873 1 96.75 84.75 147.75
315953 1 96.75 87.75 147.75
328751 1 90.75 87.75 153.75
360430 1 87.75 75.75 168.75
386269 1 84.75 84.75 180.75
687643 1 128.25 107.25 83.25
687723 1 128.25 110.25 83.25
694199 1 116.25 113.25 86.25
694288 1 143.25 116.25 86.25
700362 1 125.25 104.25 89.25
700522 1 125.25 110.25 89.25
700928 1 143.25 125.25 89.25
706762 1 125.25 104.25 92.25
706768 1 143.25 104.25 92.25
706773 1 158.25 104.25 92.25
706841 1 122.25 107.25 92.25
707004 1 131.25 113.25 92.25
713080 1 119.25 101.25 95.25
713081 1 122.25 101.25 95.25
713160 1 119.25 104.25 95.25
713323 1 128.25 110.25 95.25
713396 1 107.25 113.25 95.25
719566 1 137.25 104.25 98.25
719719 1 116.25 110.25 98.25
719727 1 140.25 110.25 98.25
725555 1 104.25 89.25 101.25
725959 1 116.25 104.25 101.25
732604 1 131.25 113.25 104.25
739173 1 158.25 119.25 107.25
853467 1 80.25 86.25 161.25
878907 1 80.25 80.25 173.25
