ITEM: TIMESTEP
77000
ITEM: NUMBER OF ATOMS
25
ITEM: BOX BOUNDS pp pp pp
0 240
0 240
0 240
ITEM: ATOMS id type x y z
212926 1 135.75 63.75 99.75
232365 1 132.75 72.75 108.75
238764 1 129.75 72.75 111.75
277953 1 96.75 102.75 129.75
278525 1 132.75 123.75 129.75
284926 1 135.75 123.75 132.75
310198 1 111.75 111.75 144.75
310279 1 114.75 114.75 144.75
316679 1 114.75 114.75 147.75
316760 1 117.75 117.75 147.75
343160 1 117.75 147.75 159.75
366926 1 135.75 78.75 171.75
394053 1 156.75 135.75 183.75
713168 1 143.25 104.25 95.25
737885 1 134.25 71.25 107.25
750772 1 155.25 74.25 113.25
790364 1 131.25 119.25 131.25
817257 1 170.25 167.25 143.25
822278 1 113.25 116.25 146.25
835875 1 104.25 146.25 152.25
835956 1 107.25 149.25 152.25
842276 1 107.25 146.25 155.25
842355 1 104.25 149.25 155.25
899653 1 158.25 137.25 182.25
906847 1 140.25 167.25 185.25
