ITEM: TIMESTEP
81284
ITEM: NUMBER OF ATOMS
46
ITEM: BOX BOUNDS pp pp pp
0 240
0 240
0 240
ITEM: ATOMS id type x y z c_myKE c_myPE
720201 1 123.348 129.724 97.844 0 -6.25868
740420 1 56.3575 169.254 105.469 0 -6.25549
770523 1 127.758 93.001 121.594 0 -6.98654
770604 1 130.996 95.7328 121.286 0 -7.35966
770362 1 126.446 88.0361 123.395 0 -6.73486
776843 1 129.607 91.4151 123.438 0 -7.66819
783322 1 126.666 91.4602 126.564 0 -7.01944
807802 1 124.607 48.0445 142.581 0 -6.91115
807883 1 127.944 51.2086 142.457 0 -6.60359
814282 1 124.607 51.1463 145.665 0 -6.91523
823141 1 59.5562 152.062 148.877 0 -6.25524
840762 1 124.581 88.2801 158.579 0 -6.82711
847396 1 105.465 99.0692 158.458 0 -6.25658
854111 1 91.4469 108.646 162.886 0 -6.25763
848363 1 129.732 134.17 161.649 0 -6.25568
366209 1 140.353 46.7994 172.304 0 -7.48875
366287 1 137.56 50.1218 172.679 0 -7.34436
878126 1 137.334 46.4993 175.639 0 -7.59096
878205 1 134.423 50.0038 175.898 0 -7.08532
361687 1 11.7012 123.355 174.408 0 -6.25482
378926 1 135.8 44.5308 179.248 0 -7.0706
884525 1 134.096 46.5032 179.053 0 -7.55054
385406 1 135.776 46.4068 181.015 0 -6.99139
900811 1 24.5521 188.437 187.241 0 -7.03595
913611 1 25.8157 187.318 191.671 0 -6.91819
906488 1 16.1362 158.445 193.549 0 -6.2557
433457 1 41.6772 178.805 207.567 0 -6.26273
213802 1 122.979 96.223 97.4915 0 -6.25513
226502 1 59.1939 91.0982 103.876 0 -6.25473
739719 1 115.372 140.89 102.628 0 -6.25642
265005 1 132.634 94.3519 122.978 0 -7.13968
265305 1 70.7118 108.98 123.001 0 -6.26501
771308 1 78.3381 123.011 121.783 0 -6.2667
266104 1 65.5762 138.949 123.013 0 -6.25574
309550 1 84.7173 84.716 144.099 0 -6.25556
303545 1 68.7657 102.612 144.102 0 -6.2546
341164 1 131.369 70.6988 161.303 0 -6.26982
335163 1 126.352 86.5096 160.161 0 -6.54323
848896 1 42.0093 160.034 161.294 0 -6.25609
362336 1 42.0064 148.519 170.867 0 -6.25416
366208 1 139.042 45.1512 174.074 0 -7.11993
376178 1 46.4436 191.938 179.191 0 -6.25687
401611 1 24.0331 185.451 190.124 0 -7.04417
423329 1 144.102 29.2374 205.976 0 -6.25552
443413 1 158.175 62.2776 214.209 0 -6.54742
449812 1 154.918 62.4001 217.465 0 -6.82324
