ITEM: TIMESTEP
78000
ITEM: NUMBER OF ATOMS
38
ITEM: BOX BOUNDS pp pp pp
0 240
0 240
0 240
ITEM: ATOMS id type x y z
207002 1 123.75 81.75 96.75
213403 1 126.75 81.75 99.75
213637 1 108.75 90.75 99.75
219959 1 114.75 87.75 102.75
220040 1 117.75 90.75 102.75
259234 1 99.75 120.75 120.75
272760 1 117.75 147.75 126.75
272842 1 123.75 150.75 126.75
304341 1 60.75 132.75 141.75
330573 1 36.75 156.75 153.75
342368 1 141.75 117.75 159.75
348848 1 141.75 120.75 162.75
349546 1 75.75 147.75 162.75
433452 1 33.75 174.75 201.75
719083 1 128.25 86.25 98.25
719238 1 113.25 92.25 98.25
719317 1 110.25 95.25 98.25
725558 1 113.25 89.25 101.25
725639 1 116.25 92.25 101.25
725718 1 113.25 95.25 101.25
732038 1 113.25 92.25 104.25
732039 1 116.25 92.25 104.25
732117 1 110.25 95.25 104.25
732119 1 116.25 95.25 104.25
732198 1 113.25 98.25 104.25
740434 1 101.25 167.25 107.25
746106 1 77.25 140.25 110.25
778362 1 125.25 149.25 125.25
785051 1 32.25 161.25 128.25
804354 1 101.25 164.25 137.25
816508 1 83.25 140.25 143.25
822828 1 83.25 137.25 146.25
842354 1 101.25 149.25 155.25
842435 1 104.25 152.25 155.25
855145 1 74.25 149.25 161.25
867859 1 56.25 146.25 167.25
874179 1 56.25 143.25 170.25
874258 1 53.25 146.25 170.25
