ITEM: TIMESTEP
78140
ITEM: NUMBER OF ATOMS
33
ITEM: BOX BOUNDS pp pp pp
0 240
0 240
0 240
ITEM: ATOMS id type x y z c_myKE c_myPE
719389 1 83.1371 95.8788 95.8907 0 -6.25322
721635 1 102.281 185.203 95.8923 0 -6.2537
752444 1 132.921 136.111 113.783 0 -6.25521
766433 1 97.6605 185.415 118.083 0 -7.24023
772832 1 94.8601 185.072 121.396 0 -7.39372
270918 1 113.774 76.7448 126.547 0 -6.25078
278993 1 94.6698 143.757 126.609 0 -7.42524
272433 1 94.462 140.575 129.517 0 -7.62273
285394 1 94.5723 143.764 129.705 0 -8.07157
784593 1 97.7608 143.718 129.391 0 -6.92448
796208 1 146.915 97.8413 136.115 0 -6.24741
810361 1 123.493 150.111 140.55 0 -6.81692
811066 1 75.505 177.585 142.506 0 -6.25681
842374 1 164.826 150.132 156.498 0 -6.25342
861871 1 89.515 162.875 168.016 0 -6.25625
241629 1 81.5519 183.642 110.256 0 -6.82173
242041 1 121.772 199.56 110.261 0 -6.25296
248029 1 80.2762 185.554 112.18 0 -6.81858
254515 1 100.493 185.717 118.611 0 -7.40435
267313 1 96.2737 186.797 122.98 0 -7.06865
267784 1 65.6016 207.881 123.021 0 -6.81924
274185 1 68.8511 208.011 126.279 0 -6.55051
790911 1 91.2782 143.844 129.423 0 -7.64606
285311 1 90.0226 142.058 131.382 0 -7.439
285393 1 94.3589 144.146 132.494 0 -7.85725
797392 1 96.2571 145.461 134.156 0 -7.0466
285552 1 92.9035 148.574 134.552 0 -7.30342
797632 1 89.6581 151.849 134.556 0 -6.69961
292032 1 93.0258 151.587 137.687 0 -7.00803
304842 1 125.071 151.878 142.319 0 -6.58379
325157 1 107.063 198.323 153.671 0 -6.25262
886920 1 118.57 138.954 179.18 0 -6.25105
401161 1 121.769 166.424 191.938 0 -6.25414
