ITEM: TIMESTEP
77364
ITEM: NUMBER OF ATOMS
27
ITEM: BOX BOUNDS pp pp pp
0 240
0 240
0 240
ITEM: ATOMS id type x y z
193466 1 75.75 54.75 90.75
251952 1 93.75 87.75 117.75
252033 1 96.75 90.75 117.75
252112 1 93.75 93.75 117.75
258352 1 93.75 87.75 120.75
258353 1 96.75 87.75 120.75
258432 1 93.75 90.75 120.75
258433 1 96.75 90.75 120.75
258512 1 93.75 93.75 120.75
258832 1 93.75 105.75 120.75
264752 1 93.75 87.75 123.75
316341 1 60.75 102.75 147.75
688599 1 116.25 143.25 83.25
730754 1 101.25 44.25 104.25
737074 1 101.25 41.25 107.25
758441 1 122.25 122.25 116.25
759214 1 41.25 152.25 116.25
763484 1 131.25 71.25 119.25
764432 1 95.25 107.25 119.25
764511 1 92.25 110.25 119.25
764512 1 95.25 110.25 119.25
765161 1 122.25 134.25 119.25
770430 1 89.25 92.25 122.25
770831 1 92.25 107.25 122.25
770912 1 95.25 110.25 122.25
776434 1 101.25 77.25 125.25
776910 1 89.25 95.25 125.25
