ITEM: TIMESTEP
80381
ITEM: NUMBER OF ATOMS
24
ITEM: BOX BOUNDS pp pp pp
0 240
0 240
0 240
ITEM: ATOMS id type x y z c_myKE c_myPE
61023 1 187.156 127.793 21.2946 0 -6.25507
617104 1 196.557 97.82 43.6084 0 -6.60155
117907 1 201.269 102.36 44.7778 0 -6.57385
117987 1 199.891 97.9153 46.7941 0 -6.90926
636550 1 215.851 110.587 54.4106 0 -6.25546
668857 1 172.462 123.343 70.3892 0 -6.82049
675177 1 172.339 120.086 73.6433 0 -6.54529
169241 1 120.167 105.451 78.6847 0 -6.26318
700680 1 118.233 115.033 88.2592 0 -6.82355
201562 1 121.489 118.297 88.3676 0 -6.53825
753001 1 121.424 161.629 111.842 0 -6.25326
757158 1 111.838 72.3097 115.026 0 -6.25407
764675 1 102.36 115.1 118.064 0 -6.72053
74137 1 172.803 138.957 29.2662 0 -6.25585
162359 1 113.433 86.6668 71.9655 0 -6.25522
694206 1 137.708 113.438 86.6765 0 -6.25471
201080 1 116.605 99.3996 91.0981 0 -6.26608
214524 1 134.536 124.948 93.0396 0 -6.25573
203740 1 182.377 202.76 93.0711 0 -6.25428
241013 1 160.049 161.286 112.193 0 -6.25332
252594 1 99.0181 109.979 116.938 0 -7.12005
758192 1 97.1897 111.846 116.888 0 -7.33637
758193 1 99.1321 111.938 118.64 0 -7.52148
297095 1 164.475 97.4937 140.895 0 -6.25384
