ITEM: TIMESTEP
81000
ITEM: NUMBER OF ATOMS
55
ITEM: BOX BOUNDS pp pp pp
0 240
0 240
0 240
ITEM: ATOMS id type x y z c_myKE c_myPE
700137 1 171.78 93.284 87.8155 0.202533 -7.02094
706537 1 174.329 92.0098 88.2463 0.0813601 -7.73095
706538 1 175.365 95.9194 89.3779 0.0448663 -7.28789
706697 1 172.203 99.3861 89.6793 0.284711 -6.38826
712939 1 178.681 92.4365 92.5867 0.169097 -7.37562
706925 1 134.321 108.534 91.212 0.229092 -6.53947
719641 1 123.259 105.467 98.254 0.02959 -6.91257
726121 1 123.597 108.497 101.131 0.160409 -6.92231
733164 1 133.214 135.535 102.397 0.146643 -5.85186
226387 1 201.25 83.0342 107.743 0.185926 -7.2231
238781 1 183.662 67.2684 110.531 0.0737837 -6.87179
750780 1 181.159 70.372 111.951 0.254315 -6.72914
239267 1 204.504 86.3759 110.543 0.402489 -7.29566
751108 1 207.461 83.2718 113.733 0.0629901 -7.15541
765064 1 67.3473 131.107 118.182 0.299326 -6.32442
271152 1 94.4849 85.2828 130.018 0.169473 -6.39862
776761 1 120.217 88.0392 129.689 0.0323279 -5.70342
783718 1 112.066 108.39 129.447 0.00227736 -7.65268
271799 1 114.929 111.621 129.892 0.11057 -6.77234
284209 1 148.72 94.4629 132.781 0.0997229 -6.32356
284541 1 187.854 108.797 134.088 0.167258 -5.66771
829159 1 114.807 135.78 151.859 0.160064 -6.57379
833791 1 91.521 63.9066 155.169 0.267442 -5.85159
853797 1 110.621 97.7587 164.917 0.810654 -7.24656
853877 1 110.503 101.184 164.649 0.0102768 -7.74723
860276 1 107.693 101.051 168.124 0.0715586 -6.96024
860277 1 110.718 100.827 167.791 0.215247 -7.63691
860357 1 110.798 104.03 167.83 0.0164023 -7.28552
188218 1 172.297 94.8296 84.0126 0.125835 -7.04195
188217 1 170.518 94.4667 86.0672 0.117835 -7.35936
195465 1 70.7749 129.145 86.2497 0.219392 -6.52082
201562 1 123.313 118.478 92.9569 0.152797 -6.59098
713639 1 118.715 122.967 94.1559 0.0182624 -7.19031
713481 1 119.893 118.318 96.0867 0.559702 -6.57382
220442 1 122.617 105.789 100.884 0.0592998 -7.85794
232708 1 202.881 81.5247 109.153 0.0185493 -7.36731
738309 1 201.538 83.4319 110.404 0.18928 -7.58091
738307 1 206.011 84.7406 108.903 0.163323 -8.36633
744627 1 205.968 81.6491 112.011 0.0386219 -7.5614
239108 1 205.846 84.7515 112.142 0.0741969 -7.64019
245509 1 209.03 81.479 115.35 0.103329 -6.96131
251910 1 212.251 81.2324 118.939 0.319751 -7.04738
758236 1 234.667 113.467 119.577 0.0485954 -6.30372
259544 1 65.9288 132.75 119.812 0.0813771 -6.87703
263229 1 80.3535 26.5266 124.886 0.0445932 -6.46933
271654 1 161.405 105.703 126.427 0.0380021 -6.25471
783636 1 108.995 108.664 126.304 0.108372 -7.14718
265477 1 112.072 112.152 126.422 0.249823 -6.75906
783475 1 107.498 95.9526 128.463 0.0243411 -5.25012
284129 1 145.138 91.5078 132.276 0.0708168 -6.69123
278119 1 113.685 107.151 131.247 0.138015 -6.92607
278345 1 69.012 116.812 131.411 0.105392 -6.28481
290391 1 215.817 84.3594 137.518 0.0573888 -6.26867
341958 1 112.304 102.899 163.318 0.0963441 -7.31067
348359 1 115.314 102.351 166.3 0.165267 -8.16352
