ITEM: TIMESTEP
78000
ITEM: NUMBER OF ATOMS
55
ITEM: BOX BOUNDS pp pp pp
0 240
0 240
0 240
ITEM: ATOMS id type x y z c_myKE c_myPE
220513 1 95.9109 107.611 99.1661 0.176843 -6.1227
732678 1 113.888 113.853 104.407 0.0678253 -6.68432
757566 1 137.814 88.1497 117.21 0.0248498 -6.11518
764184 1 67.0988 98.2104 121.733 0.04734 -6.63408
789943 1 63.8545 102.045 131.135 0.0304685 -6.7332
784203 1 127.997 129.599 129.577 0.115669 -6.79695
316186 1 72.2783 94.7216 146.647 0.240169 -7.69206
316264 1 65.8718 97.8886 146.737 0.458077 -6.74852
821864 1 69.0987 100.808 147.026 0.151679 -8.11513
828184 1 68.9732 97.727 150.191 0.101931 -8.45387
329147 1 73.7097 99.2506 148.885 0.0524423 -8.3518
828267 1 75.4405 97.7068 150.346 0.478819 -8.09486
322743 1 65.6284 101.078 150.215 0.339078 -7.99867
322745 1 68.8963 100.906 150.169 0.505689 -8.67435
322585 1 68.8882 97.8682 153.268 0.0891198 -8.41278
329067 1 72.2337 97.7435 153.378 0.218732 -8.69769
328987 1 75.431 97.6954 153.349 0.0755967 -8.17507
329065 1 68.7889 100.872 153.265 0.405589 -8.56844
841147 1 75.4678 97.5159 156.5 0.512045 -8.25415
840903 1 69.0219 100.861 156.519 0.29425 -8.40907
335627 1 72.0764 100.935 156.658 0.145177 -8.51429
847465 1 72.077 97.6736 159.668 0.304426 -8.11639
853787 1 75.3241 97.9725 159.524 0.0353126 -7.37411
848361 1 121.292 136.091 161.914 0.550691 -7.1874
854337 1 44.9372 117.965 164.582 0.130163 -6.94772
854681 1 121.492 132.798 164.992 0.227597 -7.60824
879460 1 54.4234 99.2175 177.605 0.159219 -5.83347
885784 1 67.2977 97.5841 181.256 0.0875036 -6.59943
885785 1 69.9322 97.951 180.984 0.0276355 -7.10552
891852 1 29.0197 85.3117 184.273 0.205011 -6.25744
457328 1 142.367 105.404 220.312 0.633953 -6.31319
170427 1 77.0791 155.134 76.9792 0.31462 -6.59976
188510 1 84.9499 107.137 86.8011 0.0889322 -6.47986
220758 1 111.998 115.332 102.745 0.0737756 -5.98366
752363 1 129.505 132.944 113.412 0.223397 -6.52305
252114 1 99.3885 88.0144 118.834 0.0926557 -7.44767
258435 1 102.201 88.2864 122.046 0.0629298 -6.4115
265006 1 137.883 96.4088 123.132 0.00621846 -6.1125
272203 1 126.164 127.873 128.144 0.265389 -6.24054
278133 1 158.259 108.698 132.574 0.263585 -6.13485
834506 1 70.4475 96.1808 148.428 0.281179 -8.22837
309867 1 73.6446 96.1859 148.396 0.0566935 -7.60967
322744 1 67.2597 102.554 151.86 0.0830912 -7.96444
840907 1 76.9089 96.1476 154.785 0.413708 -7.71788
335547 1 70.4843 99.3361 154.934 0.0931803 -8.60324
329068 1 73.8598 99.2966 154.951 0.0329384 -8.63376
834508 1 80.0999 99.4534 154.982 0.243545 -7.59136
834664 1 67.5666 102.577 154.891 0.234427 -7.49119
335464 1 70.3871 102.626 158.102 0.171421 -7.61515
341947 1 73.73 99.4163 161.275 0.288968 -7.95861
342761 1 119.929 134.314 163.376 0.141079 -7.35761
342762 1 123.097 134.345 163.312 0.213288 -7.89336
367569 1 145.319 102.554 175.64 0.0063554 -6.02251
380185 1 68.8636 96.1734 182.742 0.118184 -7.40828
400434 1 97.55 135.762 190.201 0.16763 -5.80242
