ITEM: TIMESTEP
76000
ITEM: NUMBER OF ATOMS
44
ITEM: BOX BOUNDS pp pp pp
0 240
0 240
0 240
ITEM: ATOMS id type x y z
157147 1 78.75 132.75 72.75
157226 1 75.75 135.75 72.75
163628 1 81.75 135.75 75.75
214521 1 120.75 123.75 99.75
240986 1 75.75 156.75 111.75
241065 1 72.75 159.75 111.75
278992 1 93.75 141.75 129.75
278993 1 96.75 141.75 129.75
285311 1 90.75 138.75 132.75
285312 1 93.75 138.75 132.75
285393 1 96.75 141.75 132.75
285394 1 99.75 141.75 132.75
285729 1 144.75 153.75 132.75
291632 1 93.75 135.75 135.75
291711 1 90.75 138.75 135.75
291712 1 93.75 138.75 135.75
291790 1 87.75 141.75 135.75
291791 1 90.75 141.75 135.75
291872 1 93.75 144.75 135.75
298905 1 72.75 168.75 138.75
310829 1 84.75 135.75 144.75
624667 1 80.25 146.25 53.25
630986 1 77.25 143.25 56.25
630987 1 80.25 143.25 56.25
631066 1 77.25 146.25 56.25
662827 1 80.25 137.25 71.25
662828 1 83.25 137.25 71.25
669147 1 80.25 134.25 74.25
669226 1 77.25 137.25 74.25
669227 1 80.25 137.25 74.25
726440 1 119.25 122.25 101.25
726441 1 122.25 122.25 101.25
727475 1 104.25 161.25 101.25
732662 1 65.25 116.25 104.25
784592 1 95.25 143.25 128.25
790911 1 92.25 140.25 131.25
797232 1 95.25 137.25 134.25
797475 1 104.25 146.25 134.25
803631 1 92.25 137.25 137.25
803710 1 89.25 140.25 137.25
810111 1 92.25 140.25 140.25
829230 1 89.25 137.25 149.25
855729 1 146.25 170.25 161.25
893393 1 98.25 143.25 179.25
