ITEM: TIMESTEP
78000
ITEM: NUMBER OF ATOMS
41
ITEM: BOX BOUNDS pp pp pp
0 240
0 240
0 240
ITEM: ATOMS id type x y z
265722 1 123.75 123.75 123.75
265723 1 126.75 123.75 123.75
265724 1 129.75 123.75 123.75
272042 1 123.75 120.75 126.75
272120 1 117.75 123.75 126.75
272122 1 123.75 123.75 126.75
272202 1 123.75 126.75 126.75
276753 1 96.75 57.75 129.75
278521 1 120.75 123.75 129.75
278601 1 120.75 126.75 129.75
278682 1 123.75 129.75 129.75
278750 1 87.75 132.75 129.75
278763 1 126.75 132.75 129.75
284918 1 111.75 123.75 132.75
284919 1 114.75 123.75 132.75
296441 1 120.75 75.75 138.75
323982 1 183.75 147.75 150.75
329347 1 198.75 108.75 153.75
330381 1 180.75 147.75 153.75
354936 1 165.75 108.75 165.75
373484 1 129.75 84.75 174.75
771243 1 128.25 122.25 122.25
777722 1 125.25 125.25 125.25
777723 1 128.25 125.25 125.25
777724 1 131.25 125.25 125.25
777802 1 125.25 128.25 125.25
777803 1 128.25 128.25 125.25
777882 1 125.25 131.25 125.25
783961 1 122.25 119.25 128.25
784041 1 122.25 122.25 128.25
784119 1 116.25 125.25 128.25
784121 1 122.25 125.25 128.25
784201 1 122.25 128.25 128.25
784202 1 125.25 128.25 128.25
784350 1 89.25 134.25 128.25
784366 1 137.25 134.25 128.25
790438 1 113.25 122.25 131.25
790520 1 119.25 125.25 131.25
791561 1 122.25 164.25 131.25
829176 1 167.25 134.25 149.25
885483 1 128.25 86.25 176.25
