ITEM: TIMESTEP
79187
ITEM: NUMBER OF ATOMS
29
ITEM: BOX BOUNDS pp pp pp
0 240
0 240
0 240
ITEM: ATOMS id type x y z
195321 1 120.75 123.75 90.75
214600 1 117.75 126.75 99.75
220912 1 93.75 123.75 102.75
220913 1 96.75 123.75 102.75
221004 1 129.75 126.75 102.75
221161 1 120.75 132.75 102.75
227565 1 132.75 132.75 105.75
240118 1 111.75 123.75 111.75
240284 1 129.75 129.75 111.75
259000 1 117.75 111.75 120.75
317069 1 84.75 129.75 147.75
330030 1 87.75 135.75 153.75
336183 1 66.75 126.75 156.75
361786 1 75.75 126.75 168.75
732912 1 95.25 125.25 104.25
739320 1 119.25 125.25 107.25
745636 1 107.25 122.25 110.25
745720 1 119.25 125.25 110.25
745722 1 125.25 125.25 110.25
758761 1 122.25 134.25 116.25
771075 1 104.25 116.25 122.25
777477 1 110.25 116.25 125.25
841950 1 89.25 134.25 155.25
854746 1 77.25 134.25 161.25
861385 1 74.25 143.25 164.25
867625 1 74.25 137.25 167.25
880185 1 74.25 128.25 173.25
887066 1 77.25 146.25 176.25
899547 1 80.25 134.25 182.25
