ITEM: TIMESTEP
77815
ITEM: NUMBER OF ATOMS
21
ITEM: BOX BOUNDS pp pp pp
0 240
0 240
0 240
ITEM: ATOMS id type x y z
156366 1 135.75 102.75 72.75
194365 1 132.75 87.75 90.75
195155 1 102.75 117.75 90.75
201557 1 108.75 117.75 93.75
201558 1 111.75 117.75 93.75
214036 1 105.75 105.75 99.75
214199 1 114.75 111.75 99.75
214276 1 105.75 114.75 99.75
219880 1 117.75 84.75 102.75
220438 1 111.75 105.75 102.75
220599 1 114.75 111.75 102.75
226514 1 99.75 93.75 105.75
227242 1 123.75 120.75 105.75
239953 1 96.75 117.75 111.75
252514 1 99.75 108.75 117.75
681157 1 110.25 104.25 80.25
713397 1 110.25 113.25 95.25
719881 1 122.25 116.25 98.25
726198 1 113.25 113.25 101.25
732355 1 104.25 104.25 104.25
738676 1 107.25 101.25 107.25
