ITEM: TIMESTEP
83316
ITEM: NUMBER OF ATOMS
35
ITEM: BOX BOUNDS pp pp pp
0 240
0 240
0 240
ITEM: ATOMS id type x y z c_myKE c_myPE
644198 1 110.604 161.667 57.5935 0 -6.25445
657498 1 175.583 180.787 63.9795 0 -6.91469
663818 1 175.676 177.45 67.1631 0 -6.6007
663897 1 172.49 180.796 67.067 0 -6.92219
676611 1 155.138 177.877 73.6264 0 -6.8782
683011 1 155.346 177.582 76.6501 0 -7.03986
715800 1 123.494 209.53 92.67 0 -6.82565
209176 1 169.199 159.708 95.898 0 -7.60268
716676 1 107.407 241.422 94.6287 0 -6.25558
727417 1 172.421 159.77 99.2669 0 -6.68424
216925 1 136.122 217.127 97.8066 0 -6.25383
735402 1 127.817 225.454 102.267 0 -6.82306
738511 1 86.2538 94.5639 105.554 0 -7.04292
229883 1 129.734 226.721 104.189 0 -6.82825
784620 1 182.027 143.769 129.718 0 -6.25439
843415 1 166.078 193.561 159.673 0 -6.25446
106374 1 161.292 148.552 45.1813 0 -6.25473
671326 1 135.778 220.692 70.6904 0 -6.25613
171091 1 153.613 179.355 75.2828 0 -7.07287
185257 1 170.864 233.437 81.5226 0 -6.25486
189719 1 115.381 156.883 84.7077 0 -6.25422
196221 1 183.604 160.055 87.9189 0 -6.26046
702056 1 172.911 172.746 86.5803 0 -6.52609
702297 1 173.949 177.352 91.1748 0 -6.5308
210202 1 125.079 207.759 94.4397 0 -6.54571
208196 1 103.874 128.17 96.2247 0 -6.25463
721096 1 167.631 164.41 97.4487 0 -7.70989
215497 1 169.693 163.286 99.3848 0 -7.69221
727735 1 167.59 167.763 100.763 0 -6.61559
732030 1 88.0364 93.0179 103.69 0 -6.91745
220270 1 86.7738 97.4476 102.57 0 -7.03693
241158 1 110.571 168.011 110.038 0 -7.06585
247559 1 113.076 166.592 113.279 0 -6.7816
241238 1 110.571 169.833 111.859 0 -7.06556
310672 1 89.8736 131.362 147.26 0 -6.25433
