ITEM: TIMESTEP
79000
ITEM: NUMBER OF ATOMS
34
ITEM: BOX BOUNDS pp pp pp
0 240
0 240
0 240
ITEM: ATOMS id type x y z
187082 1 123.75 54.75 87.75
219386 1 75.75 66.75 102.75
219467 1 78.75 69.75 102.75
219954 1 99.75 87.75 102.75
220034 1 99.75 90.75 102.75
226122 1 123.75 78.75 105.75
232985 1 72.75 96.75 108.75
233885 1 132.75 129.75 108.75
302987 1 78.75 81.75 141.75
315485 1 132.75 69.75 147.75
323552 1 93.75 132.75 150.75
343144 1 69.75 147.75 159.75
367173 1 156.75 87.75 171.75
367252 1 153.75 90.75 171.75
373572 1 153.75 87.75 174.75
373653 1 156.75 90.75 174.75
379730 1 147.75 78.75 177.75
403973 1 156.75 27.75 189.75
424144 1 189.75 63.75 198.75
482059 1 174.75 75.75 225.75
725395 1 104.25 83.25 101.25
731794 1 101.25 83.25 104.25
738041 1 122.25 77.25 107.25
790506 1 77.25 125.25 131.25
821005 1 134.25 68.25 146.25
821085 1 134.25 71.25 146.25
821887 1 140.25 101.25 146.25
828207 1 140.25 98.25 149.25
860423 1 68.25 107.25 164.25
898210 1 149.25 83.25 182.25
909572 1 155.25 29.25 188.25
923884 1 131.25 86.25 194.25
929743 1 188.25 65.25 197.25
936064 1 191.25 62.25 200.25
