ITEM: TIMESTEP
82000
ITEM: NUMBER OF ATOMS
47
ITEM: BOX BOUNDS pp pp pp
0 240
0 240
0 240
ITEM: ATOMS id type x y z c_myKE c_myPE
763017 1 172.07 50.1348 118.269 0.512352 -6.82674
800571 1 25.9705 16.3119 137.447 0.0954325 -6.85265
806892 1 29.0939 16.2971 140.508 0.234376 -6.9471
815084 1 132.916 83.1647 145.577 0.19734 -6.49537
329085 1 130.613 97.8731 154.108 0.148375 -7.67143
834765 1 134.156 101.776 153.701 0.258498 -7.45471
829081 1 121.326 130.956 152.2 0.0404621 -7.13987
833212 1 30.9049 41.9564 155.103 0.389932 -6.67698
834605 1 132.599 97.928 155.926 0.508659 -7.68594
835401 1 121.075 128.056 155.682 0.0998051 -7.08719
873405 1 134.234 114.173 172.377 0.0521626 -6.33081
406056 1 169.23 101.003 194.835 0.88801 -6.3831
930534 1 162.964 94.7905 201.332 0.476314 -7.89352
425016 1 165.917 94.6945 201.381 0.152094 -7.95393
425095 1 166.345 97.8931 201.317 0.0277637 -7.77033
924528 1 143.688 110.55 199.906 0.077648 -6.73675
936126 1 139.535 60.8709 204.293 0.0504599 -6.5665
431336 1 165.954 94.4815 204.299 0.0559482 -7.82445
425014 1 162.867 97.9417 204.251 0.0877115 -7.39599
988540 1 183.975 108.621 230.177 0.145085 -6.68332
725477 1 112.287 81.5008 100.814 0.152866 -6.59692
263543 1 65.6473 38.9409 124.694 0.0310001 -5.77743
283136 1 42.0923 54.5642 132.537 0.0911368 -6.79382
790289 1 148.993 113.2 131.15 0.0754168 -6.87113
796690 1 151.43 116.561 132.603 0.179818 -6.39167
289456 1 42.0628 51.7588 135.838 0.0766718 -6.72925
289800 1 119.168 62.8252 137.227 0.710011 -5.89347
806971 1 29.2464 13.5974 140.981 0.4347 -7.01397
309883 1 128.38 97.6839 145.275 0.0418578 -6.99559
821803 1 131.258 97.4405 148.427 0.119325 -7.89052
828204 1 128.205 100.971 148.501 0.211164 -7.63509
834523 1 131.303 94.4834 151.853 0.137031 -7.71049
322683 1 128.669 97.9123 151.986 0.237491 -7.68794
322604 1 132.908 96.3424 150.222 0.161133 -7.13028
316206 1 135.882 96.2243 150.294 0.0542716 -8.31135
834032 1 94.3367 71.9692 155.029 0.499629 -7.53439
327612 1 29.2786 40.1807 156.695 0.150189 -6.53563
328513 1 93.0407 73.6405 156.79 0.130322 -6.14435
341729 1 147.167 93.2381 161.119 0.219931 -6.7488
917894 1 167.989 99.3205 196.412 0.0776039 -7.45108
418616 1 167.553 96.1009 199.769 0.530289 -7.78799
917975 1 166.408 100.838 197.99 0.190805 -7.3852
425343 1 190.068 109.052 202.848 0.183945 -6.84168
431663 1 189.881 105.69 205.436 0.123042 -6.43195
425407 1 139.191 111.861 204.781 0.502448 -7.10896
443974 1 162.921 84.5512 209.265 0.0804607 -6.07783
444296 1 167.477 96.2615 208.89 0.262913 -6.80144
