ITEM: TIMESTEP
79000
ITEM: NUMBER OF ATOMS
33
ITEM: BOX BOUNDS pp pp pp
0 240
0 240
0 240
ITEM: ATOMS id type x y z
245952 1 93.75 102.75 114.75
245956 1 105.75 102.75 114.75
252128 1 141.75 93.75 117.75
252136 1 165.75 93.75 117.75
252922 1 123.75 123.75 117.75
264763 1 126.75 87.75 123.75
265555 1 102.75 117.75 123.75
271172 1 153.75 87.75 126.75
283963 1 126.75 87.75 132.75
290680 1 117.75 99.75 135.75
296605 1 132.75 81.75 138.75
303080 1 117.75 84.75 141.75
309314 1 99.75 78.75 144.75
309723 1 126.75 93.75 144.75
315880 1 117.75 84.75 147.75
316276 1 105.75 99.75 147.75
322838 1 111.75 105.75 150.75
335234 1 99.75 90.75 156.75
367641 1 120.75 105.75 171.75
385967 1 138.75 72.75 180.75
764050 1 149.25 92.25 119.25
764667 1 80.25 116.25 119.25
777230 1 89.25 107.25 125.25
796282 1 125.25 101.25 134.25
834444 1 131.25 92.25 152.25
840051 1 152.25 62.25 155.25
853878 1 113.25 101.25 161.25
859331 1 152.25 65.25 164.25
860280 1 119.25 101.25 164.25
860357 1 110.25 104.25 164.25
878527 1 140.25 65.25 173.25
891808 1 143.25 83.25 179.25
898446 1 137.25 92.25 182.25
