ITEM: TIMESTEP
76000
ITEM: NUMBER OF ATOMS
25
ITEM: BOX BOUNDS pp pp pp
0 240
0 240
0 240
ITEM: ATOMS id type x y z
207074 1 99.75 84.75 96.75
213394 1 99.75 81.75 99.75
213475 1 102.75 84.75 99.75
213552 1 93.75 87.75 99.75
218912 1 93.75 48.75 102.75
219953 1 96.75 87.75 102.75
219954 1 99.75 87.75 102.75
219955 1 102.75 87.75 102.75
220034 1 99.75 90.75 102.75
226354 1 99.75 87.75 105.75
270668 1 81.75 69.75 126.75
270673 1 96.75 69.75 126.75
270749 1 84.75 72.75 126.75
277068 1 81.75 69.75 129.75
297148 1 81.75 102.75 138.75
297771 1 30.75 126.75 138.75
322267 1 78.75 84.75 150.75
719072 1 95.25 86.25 98.25
719073 1 98.25 86.25 98.25
719075 1 104.25 86.25 98.25
725473 1 98.25 86.25 101.25
725474 1 101.25 86.25 101.25
725475 1 104.25 86.25 101.25
782668 1 83.25 71.25 128.25
802668 1 83.25 101.25 137.25
