ITEM: TIMESTEP
76000
ITEM: NUMBER OF ATOMS
28
ITEM: BOX BOUNDS pp pp pp
0 240
0 240
0 240
ITEM: ATOMS id type x y z
169319 1 114.75 108.75 78.75
284348 1 81.75 102.75 132.75
284427 1 78.75 105.75 132.75
290829 1 84.75 105.75 135.75
316184 1 69.75 96.75 147.75
316263 1 66.75 99.75 147.75
316264 1 69.75 99.75 147.75
322676 1 105.75 99.75 150.75
328185 1 72.75 66.75 153.75
334586 1 75.75 66.75 156.75
340902 1 63.75 63.75 159.75
354423 1 66.75 90.75 165.75
372110 1 87.75 33.75 174.75
768983 1 68.25 38.25 122.25
770008 1 23.25 77.25 122.25
775303 1 68.25 35.25 125.25
775383 1 68.25 38.25 125.25
776328 1 23.25 74.25 125.25
777152 1 95.25 104.25 125.25
783553 1 98.25 104.25 128.25
796348 1 83.25 104.25 134.25
821863 1 68.25 101.25 146.25
828184 1 71.25 98.25 149.25
840024 1 71.25 62.25 155.25
852906 1 77.25 65.25 161.25
885165 1 134.25 74.25 176.25
935550 1 89.25 44.25 200.25
968602 1 125.25 83.25 215.25
