ITEM: TIMESTEP
84000
ITEM: NUMBER OF ATOMS
45
ITEM: BOX BOUNDS pp pp pp
0 240
0 240
0 240
ITEM: ATOMS id type x y z
227645 1 132.75 135.75 105.75
239236 1 105.75 90.75 111.75
265322 1 123.75 108.75 123.75
286533 1 156.75 183.75 132.75
311395 1 102.75 156.75 144.75
317794 1 99.75 156.75 147.75
330114 1 99.75 138.75 153.75
343171 1 150.75 147.75 159.75
349570 1 147.75 147.75 162.75
349651 1 150.75 150.75 162.75
350530 1 147.75 183.75 162.75
350609 1 144.75 186.75 162.75
355969 1 144.75 147.75 165.75
356049 1 144.75 150.75 165.75
356050 1 147.75 150.75 165.75
357075 1 102.75 189.75 165.75
362450 1 147.75 150.75 168.75
375322 1 123.75 153.75 174.75
381642 1 123.75 150.75 177.75
409097 1 168.75 219.75 189.75
496944 1 189.75 153.75 231.75
504605 1 132.75 201.75 234.75
651093 1 158.25 176.25 65.25
726994 1 101.25 143.25 101.25
751235 1 104.25 92.25 113.25
752609 1 146.25 143.25 113.25
757716 1 107.25 95.25 116.25
764115 1 104.25 95.25 119.25
777241 1 122.25 107.25 125.25
791241 1 122.25 152.25 131.25
797718 1 113.25 155.25 134.25
816994 1 101.25 158.25 143.25
830680 1 119.25 191.25 149.25
848689 1 146.25 146.25 158.25
855090 1 149.25 146.25 161.25
855170 1 149.25 149.25 161.25
856621 1 182.25 203.25 161.25
861569 1 146.25 149.25 164.25
861570 1 149.25 149.25 164.25
875315 1 104.25 185.25 170.25
880205 1 134.25 128.25 173.25
893481 1 122.25 146.25 179.25
899882 1 125.25 146.25 182.25
920711 1 212.25 206.25 191.25
925825 1 194.25 158.25 194.25
