ITEM: TIMESTEP
88294
ITEM: NUMBER OF ATOMS
47
ITEM: BOX BOUNDS pp pp pp
0 240
0 240
0 240
ITEM: ATOMS id type x y z c_myKE c_myPE
718594 1 100.711 64.3159 98.8969 0 -7.06122
212994 1 98.8899 64.3142 100.718 0 -7.06595
724994 1 100.711 66.136 100.719 0 -7.07003
732678 1 110.959 117.181 102.986 0 -7.01878
732759 1 115.034 118.32 101.46 0 -7.06267
233477 1 110.296 115.111 104.43 0 -7.4062
739080 1 115.022 117.086 105.674 0 -6.67341
751869 1 83.0183 116.821 112.006 0 -6.5436
763485 1 136.11 67.2005 120.172 0 -6.82184
763564 1 132.853 70.4573 120.294 0 -6.54552
283621 1 59.3525 73.827 133.884 0 -7.27938
795541 1 57.5765 71.8498 137.305 0 -6.96568
802273 1 97.8373 83.1383 137.373 0 -6.25334
829072 1 94.6334 132.944 150.114 0 -6.25275
342201 1 118.24 110.82 159.686 0 -7.03968
342438 1 118.425 116.881 162.893 0 -7.2823
355163 1 121.375 117.213 166.096 0 -7.49514
860763 1 124.702 117.09 169.363 0 -6.49735
873096 1 172.463 99.0898 174.411 0 -6.25491
880136 1 171.218 126.556 177.6 0 -6.2548
880276 1 105.482 131.004 177.586 0 -6.82495
880357 1 108.739 134.262 177.708 0 -6.5474
402305 1 194.868 210.629 193.461 0 -6.54222
926792 1 220.31 197.983 197.977 0 -6.25494
920703 1 191.611 210.746 196.718 0 -6.82176
926055 1 166.065 171.341 199.943 0 -6.82758
937802 1 124.61 127.821 206.315 0 -6.25625
486239 1 242.63 238.207 235.01 0 -6.25598
174593 1 96.244 64.3521 80.283 0 -6.25709
745629 1 83.5918 119.984 108.844 0 -6.54346
251717 1 109 77.1178 116.638 0 -6.25409
290021 1 55.725 73.6613 137.511 0 -7.28818
316830 1 86.657 121.769 148.513 0 -6.26666
328114 1 100.676 59.2159 156.857 0 -6.25433
328515 1 102.631 77.1107 156.861 0 -6.25472
342280 1 120.114 112.312 161.521 0 -6.77198
342359 1 116.588 115.393 161.125 0 -7.68838
357991 1 217.151 228.603 167.476 0 -7.06499
364311 1 214.651 227.183 170.718 0 -6.78195
364472 1 218.572 231.106 170.718 0 -6.78681
382466 1 199.584 185.571 180.446 0 -6.82289
388867 1 202.842 185.683 183.703 0 -6.54061
414136 1 167.835 172.924 198.172 0 -6.54336
428468 1 205.954 233.426 202.763 0 -6.25565
432285 1 132.63 128.163 207.934 0 -6.25871
459504 1 193.189 193.2 220.741 0 -6.35025
465662 1 186.905 183.711 223.96 0 -6.28789
