ITEM: TIMESTEP
81000
ITEM: NUMBER OF ATOMS
47
ITEM: BOX BOUNDS pp pp pp
0 240
0 240
0 240
ITEM: ATOMS id type x y z c_myKE c_myPE
664761 1 121.436 213.867 69.333 0.0998938 -6.92135
695662 1 190.407 171.142 85.1673 0.0255694 -6.06132
707720 1 118.181 142.518 91.5371 0.142963 -6.72428
721327 1 140.839 175.587 98.1183 0.267072 -7.07777
228606 1 140.791 175.853 101.151 0.0414662 -8.36122
228604 1 137.391 179.008 101.257 0.68622 -8.21062
734127 1 139.08 174.428 105.568 0.234619 -8.41091
740608 1 143.828 175.803 104.164 0.273437 -8.15019
734286 1 137.644 179.067 104.22 0.237595 -8.37464
222288 1 143.902 178.996 104.252 0.31726 -8.45957
228687 1 140.662 182.257 104.284 0.00603982 -8.63219
747247 1 140.675 179.178 107.395 0.182357 -8.43511
747089 1 143.955 178.885 107.591 0.410055 -8.37589
734287 1 140.618 182.311 107.356 0.20167 -8.48152
740689 1 143.767 182.167 107.244 0.129202 -8.02355
235325 1 137.458 185.377 107.251 0.028593 -8.0728
235327 1 140.637 185.369 107.337 0.331736 -8.69929
229007 1 140.725 188.528 107.461 0.132433 -8.53335
747328 1 143.85 188.432 110.835 0.0682121 -8.12223
753568 1 143.592 185.352 113.894 0.0087554 -7.69916
753647 1 140.839 188.551 113.792 0.151209 -7.06218
285011 1 153.112 121.449 130.862 0.312023 -6.98978
785564 1 132.903 181.914 130.174 0.104788 -7.33257
798924 1 132.763 206.081 134.237 0.287861 -6.56064
152681 1 119.497 209.241 67.6635 0.194796 -7.14169
159080 1 116.685 209.163 70.805 0.110785 -6.64356
189240 1 116.59 137.746 86.8374 0.443699 -6.61445
195720 1 116.793 140.837 89.9133 0.0951064 -6.92227
217323 1 127.989 236.679 97.7701 0.408326 -6.89727
228525 1 137.622 176.168 100.93 0.0723814 -8.03338
740527 1 142.362 174.155 102.84 0.112014 -7.47764
721406 1 139.182 177.515 102.663 0.131428 -8.20144
215887 1 142.203 180.726 102.589 0.145526 -8.65802
740688 1 145.584 177.322 105.664 0.340868 -8.09881
740526 1 135.753 180.773 105.71 0.315192 -8.0644
740845 1 139.15 183.756 105.861 0.0574944 -8.23712
740848 1 145.396 180.646 109.125 0.184763 -7.72357
747170 1 142.492 183.84 109.051 0.295784 -8.2368
241649 1 142.426 186.718 108.966 0.344364 -8.33365
747407 1 142.188 190.268 108.929 0.20108 -8.13137
240433 1 94.0371 137.876 112.363 0.14796 -6.79739
240512 1 90.7856 140.8 112.461 0.0519061 -7.09416
753805 1 139.039 189.983 112.09 0.247178 -7.50994
274530 1 150.357 218.772 126.238 0.173809 -6.03532
273564 1 131.083 180.399 128.35 0.119467 -6.26884
277784 1 65.7319 93.0861 131.045 0.0986136 -6.1567
286523 1 126.253 192.359 132.816 0.137426 -6.3119
