ITEM: TIMESTEP
77000
ITEM: NUMBER OF ATOMS
30
ITEM: BOX BOUNDS pp pp pp
0 240
0 240
0 240
ITEM: ATOMS id type x y z
206920 1 117.75 78.75 96.75
239558 1 111.75 102.75 111.75
245958 1 111.75 102.75 114.75
252196 1 105.75 96.75 117.75
252204 1 129.75 96.75 117.75
265149 1 84.75 102.75 123.75
284351 1 90.75 102.75 132.75
284352 1 93.75 102.75 132.75
290356 1 105.75 87.75 135.75
290510 1 87.75 93.75 135.75
290590 1 87.75 96.75 135.75
296843 1 126.75 90.75 138.75
297633 1 96.75 120.75 138.75
309643 1 126.75 90.75 144.75
310907 1 78.75 138.75 144.75
316049 1 144.75 90.75 147.75
354821 1 60.75 105.75 165.75
354900 1 57.75 108.75 165.75
725402 1 125.25 83.25 101.25
725403 1 128.25 83.25 101.25
725483 1 128.25 86.25 101.25
731799 1 116.25 83.25 104.25
745002 1 125.25 98.25 110.25
757956 1 107.25 104.25 116.25
763806 1 137.25 83.25 119.25
770515 1 104.25 95.25 122.25
777315 1 104.25 110.25 125.25
796116 1 107.25 95.25 134.25
854100 1 59.25 110.25 161.25
866739 1 56.25 104.25 167.25
