ITEM: TIMESTEP
78000
ITEM: NUMBER OF ATOMS
54
ITEM: BOX BOUNDS pp pp pp
0 240
0 240
0 240
ITEM: ATOMS id type x y z
163649 1 144.75 135.75 75.75
163728 1 141.75 138.75 75.75
170037 1 108.75 135.75 78.75
170048 1 141.75 135.75 78.75
170129 1 144.75 138.75 78.75
176517 1 108.75 138.75 81.75
180764 1 129.75 57.75 84.75
181716 1 105.75 93.75 84.75
188116 1 105.75 93.75 87.75
194031 1 90.75 75.75 90.75
194597 1 108.75 96.75 90.75
195801 1 120.75 141.75 90.75
202121 1 120.75 138.75 93.75
202200 1 117.75 141.75 93.75
208521 1 120.75 138.75 96.75
208601 1 120.75 141.75 96.75
208682 1 123.75 144.75 96.75
208683 1 126.75 144.75 96.75
208762 1 123.75 147.75 96.75
209400 1 117.75 171.75 96.75
216120 1 117.75 183.75 99.75
239172 1 153.75 87.75 111.75
253080 1 117.75 129.75 117.75
315091 1 150.75 54.75 147.75
315420 1 177.75 66.75 147.75
321490 1 147.75 54.75 150.75
321819 1 174.75 66.75 150.75
378445 1 132.75 30.75 177.75
378935 1 162.75 48.75 177.75
675635 1 104.25 137.25 77.25
679804 1 131.25 53.25 80.25
682115 1 104.25 140.25 80.25
693716 1 107.25 95.25 86.25
700116 1 107.25 95.25 89.25
700117 1 110.25 95.25 89.25
707721 1 122.25 140.25 92.25
707882 1 125.25 146.25 92.25
707962 1 125.25 149.25 92.25
714201 1 122.25 143.25 95.25
714281 1 122.25 146.25 95.25
714362 1 125.25 149.25 95.25
714442 1 125.25 152.25 95.25
720362 1 125.25 134.25 98.25
720441 1 122.25 137.25 98.25
720521 1 122.25 140.25 98.25
720601 1 122.25 143.25 98.25
720602 1 125.25 143.25 98.25
721719 1 116.25 185.25 98.25
727001 1 122.25 143.25 101.25
759098 1 173.25 146.25 116.25
763645 1 134.25 77.25 119.25
763646 1 137.25 77.25 119.25
799167 1 140.25 209.25 134.25
827009 1 146.25 53.25 149.25
