ITEM: TIMESTEP
80287
ITEM: NUMBER OF ATOMS
40
ITEM: BOX BOUNDS pp pp pp
0 240
0 240
0 240
ITEM: ATOMS id type x y z
219724 1 129.75 78.75 102.75
220291 1 150.75 99.75 102.75
239410 1 147.75 96.75 111.75
245885 1 132.75 99.75 114.75
246047 1 138.75 105.75 114.75
246129 1 144.75 108.75 114.75
252366 1 135.75 102.75 117.75
258764 1 129.75 102.75 120.75
258769 1 144.75 102.75 120.75
265169 1 144.75 102.75 123.75
265326 1 135.75 108.75 123.75
271809 1 144.75 111.75 126.75
278366 1 135.75 117.75 129.75
291246 1 135.75 120.75 135.75
291326 1 135.75 123.75 135.75
292518 1 111.75 168.75 135.75
304921 1 120.75 153.75 141.75
304922 1 123.75 153.75 141.75
335009 1 144.75 81.75 156.75
732207 1 140.25 98.25 104.25
732212 1 155.25 98.25 104.25
751169 1 146.25 89.25 113.25
751408 1 143.25 98.25 113.25
751486 1 137.25 101.25 113.25
751487 1 140.25 101.25 113.25
751569 1 146.25 104.25 113.25
757887 1 140.25 101.25 116.25
763966 1 137.25 89.25 119.25
764205 1 134.25 98.25 119.25
764287 1 140.25 101.25 119.25
764367 1 140.25 104.25 119.25
770526 1 137.25 95.25 122.25
770765 1 134.25 104.25 122.25
770766 1 137.25 104.25 122.25
770767 1 140.25 104.25 122.25
777327 1 140.25 110.25 125.25
783088 1 143.25 86.25 128.25
804278 1 113.25 161.25 137.25
809568 1 143.25 119.25 140.25
810200 1 119.25 143.25 140.25
