ITEM: TIMESTEP
76324
ITEM: NUMBER OF ATOMS
38
ITEM: BOX BOUNDS pp pp pp
0 240
0 240
0 240
ITEM: ATOMS id type x y z c_myKE c_myPE
700828 1 79.8402 123.316 88.1532 0 -6.27454
726898 1 48.0383 142.5 99.0752 0 -6.25435
746127 1 142.498 142.51 107.398 0 -6.25371
746187 1 78.6526 145.804 108.738 0 -6.35757
758594 1 100.975 129.78 110.496 0 -7.50499
739470 1 91.48 132.815 110.492 0 -8.47966
752192 1 94.5054 132.728 110.445 0 -8.5289
246672 1 94.5455 129.624 113.697 0 -8.78846
253075 1 97.6582 129.602 113.706 0 -8.32084
758670 1 88.2005 132.818 113.759 0 -8.45985
752271 1 91.3814 132.774 113.612 0 -8.75228
764911 1 91.3777 129.646 116.799 0 -8.45378
246674 1 94.5492 129.63 116.838 0 -8.59437
783479 1 116.966 101.055 129.714 0 -6.25697
815794 1 101.013 111.874 145.68 0 -6.25665
827877 1 108.471 83.1042 152.068 0 -7.03409
854910 1 86.3203 142.517 164.831 0 -6.25383
739472 1 96.2881 131.323 105.904 0 -7.86638
739474 1 96.178 131.223 108.981 0 -8.70797
752275 1 99.2817 131.333 108.894 0 -8.23897
233874 1 96.1025 134.481 108.925 0 -8.16685
745872 1 92.9872 131.195 112.094 0 -8.79701
752433 1 96.0994 131.188 112.067 0 -8.80883
253155 1 99.213 131.242 112.07 0 -8.49407
246750 1 89.9077 134.445 112.074 0 -8.05429
758909 1 83.3512 137.713 112.05 0 -6.64494
253073 1 96.0893 128 115.266 0 -7.97018
765230 1 86.7138 131.218 115.377 0 -8.09799
259472 1 89.8285 131.215 115.259 0 -8.72276
246671 1 92.9317 131.19 115.206 0 -8.82144
246831 1 83.2723 134.438 115.344 0 -6.88091
752510 1 86.7319 137.441 115.244 0 -7.16361
764909 1 86.9709 128.132 118.732 0 -7.46156
259393 1 92.8864 128.229 118.553 0 -7.6514
259631 1 89.8843 131.251 118.496 0 -8.47657
271868 1 80.2516 113.395 126.183 0 -6.26845
315957 1 107.028 84.8821 150.21 0 -6.69945
322356 1 103.909 84.6486 153.626 0 -6.86441
