ITEM: TIMESTEP
89000
ITEM: NUMBER OF ATOMS
50
ITEM: BOX BOUNDS pp pp pp
0 240
0 240
0 240
ITEM: ATOMS id type x y z
178281 1 120.75 204.75 81.75
185321 1 120.75 228.75 84.75
186293 1 156.75 24.75 87.75
229407 1 138.75 201.75 105.75
235727 1 138.75 198.75 108.75
235806 1 135.75 201.75 108.75
235887 1 138.75 204.75 108.75
242046 1 135.75 195.75 111.75
242125 1 132.75 198.75 111.75
242126 1 135.75 198.75 111.75
242205 1 132.75 201.75 111.75
248443 1 126.75 195.75 114.75
248444 1 129.75 195.75 114.75
248445 1 132.75 195.75 114.75
248525 1 132.75 198.75 114.75
254763 1 126.75 192.75 117.75
254844 1 129.75 195.75 117.75
262061 1 180.75 225.75 120.75
264838 1 111.75 90.75 123.75
266120 1 117.75 138.75 123.75
277722 1 123.75 93.75 129.75
284042 1 123.75 90.75 132.75
284122 1 123.75 93.75 132.75
285716 1 105.75 153.75 132.75
312520 1 117.75 198.75 144.75
316982 1 63.75 126.75 147.75
600692 1 155.25 206.25 41.25
694433 1 98.25 122.25 86.25
700913 1 98.25 125.25 89.25
704532 1 155.25 20.25 92.25
741406 1 137.25 203.25 107.25
745063 1 68.25 101.25 110.25
747805 1 134.25 203.25 110.25
747806 1 137.25 203.25 110.25
753964 1 131.25 194.25 113.25
754206 1 137.25 203.25 113.25
760444 1 131.25 197.25 116.25
764512 1 95.25 110.25 119.25
764592 1 95.25 113.25 119.25
765320 1 119.25 140.25 119.25
765399 1 116.25 143.25 119.25
767499 1 176.25 221.25 119.25
773900 1 179.25 221.25 122.25
773979 1 176.25 224.25 122.25
776843 1 128.25 92.25 125.25
783323 1 128.25 95.25 128.25
789642 1 125.25 92.25 131.25
798022 1 65.25 167.25 134.25
818039 1 116.25 197.25 143.25
861726 1 137.25 155.25 164.25
