ITEM: TIMESTEP
78000
ITEM: NUMBER OF ATOMS
38
ITEM: BOX BOUNDS pp pp pp
0 240
0 240
0 240
ITEM: ATOMS id type x y z
207393 1 96.75 96.75 96.75
208112 1 93.75 123.75 96.75
239953 1 96.75 117.75 111.75
252987 1 78.75 126.75 117.75
272432 1 93.75 135.75 126.75
272839 1 114.75 150.75 126.75
273081 1 120.75 159.75 126.75
279311 1 90.75 153.75 129.75
285320 1 117.75 138.75 132.75
285720 1 117.75 153.75 132.75
290432 1 93.75 90.75 135.75
291719 1 114.75 138.75 135.75
291871 1 90.75 144.75 135.75
291951 1 90.75 147.75 135.75
303234 1 99.75 90.75 141.75
304830 1 87.75 150.75 141.75
329800 1 117.75 126.75 153.75
336202 1 123.75 126.75 156.75
368441 1 120.75 135.75 171.75
757955 1 104.25 104.25 116.25
758832 1 95.25 137.25 116.25
765313 1 98.25 140.25 119.25
771389 1 86.25 128.25 122.25
777315 1 104.25 110.25 125.25
778511 1 92.25 155.25 125.25
784673 1 98.25 146.25 128.25
784678 1 113.25 146.25 128.25
791078 1 113.25 146.25 131.25
797316 1 107.25 140.25 134.25
803467 1 80.25 131.25 137.25
803714 1 101.25 140.25 137.25
810521 1 122.25 155.25 140.25
829163 1 128.25 134.25 149.25
836279 1 116.25 161.25 152.25
841720 1 119.25 125.25 155.25
854363 1 128.25 119.25 161.25
861159 1 116.25 134.25 164.25
873958 1 113.25 134.25 170.25
