ITEM: TIMESTEP
82183
ITEM: NUMBER OF ATOMS
33
ITEM: BOX BOUNDS pp pp pp
0 240
0 240
0 240
ITEM: ATOMS id type x y z
164433 1 96.75 165.75 75.75
170274 1 99.75 144.75 78.75
202355 1 102.75 147.75 93.75
209800 1 117.75 186.75 96.75
209803 1 126.75 186.75 96.75
209806 1 135.75 186.75 96.75
209966 1 135.75 192.75 96.75
214195 1 102.75 111.75 99.75
214275 1 102.75 114.75 99.75
216360 1 117.75 192.75 99.75
226834 1 99.75 105.75 105.75
240041 1 120.75 120.75 111.75
267634 1 99.75 195.75 123.75
676431 1 92.25 167.25 77.25
688914 1 101.25 155.25 83.25
696278 1 113.25 191.25 86.25
701233 1 98.25 137.25 89.25
701392 1 95.25 143.25 89.25
701474 1 101.25 146.25 89.25
709237 1 110.25 197.25 92.25
712991 1 92.25 98.25 95.25
714273 1 98.25 146.25 95.25
715407 1 140.25 188.25 95.25
721486 1 137.25 176.25 98.25
721716 1 107.25 185.25 98.25
721724 1 131.25 185.25 98.25
721882 1 125.25 191.25 98.25
721964 1 131.25 194.25 98.25
747397 1 110.25 188.25 110.25
754126 1 137.25 200.25 113.25
758204 1 131.25 113.25 116.25
760122 1 125.25 185.25 116.25
760688 1 143.25 206.25 116.25
