ITEM: TIMESTEP
79278
ITEM: NUMBER OF ATOMS
56
ITEM: BOX BOUNDS pp pp pp
0 240
0 240
0 240
ITEM: ATOMS id type x y z c_myKE c_myPE
719079 1 117.087 84.9075 96.0547 0 -6.54278
720266 1 73.5177 130.963 95.7278 0 -7.04193
726201 1 123.255 113.71 101.187 0 -6.91633
214362 1 123.291 117.023 100.818 0 -6.75732
738274 1 99.0536 83.1028 107.542 0 -6.8214
764421 1 57.6066 105.459 120.178 0 -6.25695
790435 1 104.194 124.644 130.931 0 -7.69022
784115 1 102.272 126.551 129.835 0 -7.02119
278436 1 105.65 123.137 132.904 0 -6.96118
310602 1 123.242 126.384 140.684 0 -8.00863
297641 1 123.245 123.282 143.848 0 -7.92985
822520 1 120.098 126.55 143.845 0 -8.4913
809641 1 123.236 126.413 143.887 0 -8.71418
310522 1 126.386 126.378 143.92 0 -8.51952
310680 1 120.053 129.574 143.962 0 -8.46852
816280 1 120.1 132.717 143.919 0 -8.43365
310441 1 126.477 123.271 147.083 0 -7.94301
316922 1 126.427 126.417 147.076 0 -8.70119
822602 1 129.629 126.399 147.06 0 -8.01188
317082 1 123.264 129.568 147.085 0 -8.7993
317160 1 120.192 132.792 147.094 0 -8.39722
822209 1 146.888 113.783 148.879 0 -6.2703
835561 1 123.239 132.889 150.107 0 -7.74014
854345 1 72.2796 118.205 164.858 0 -6.25541
861788 1 82.2189 162.868 166.098 0 -6.62974
200182 1 59.1977 64.3411 89.8686 0 -6.25544
201867 1 75.0625 129.41 91.1647 0 -6.86518
207159 1 115.503 86.6765 94.2824 0 -6.82026
208347 1 75.2985 132.821 94.2871 0 -6.69768
214282 1 125.037 115.256 99.3207 0 -7.04194
232755 1 100.825 84.8739 109.128 0 -6.54294
232980 1 52.8204 94.2979 109.014 0 -6.25631
266278 1 112.26 147.34 125.021 0 -6.28212
266359 1 115.339 150.45 126.231 0 -7.37599
778279 1 115.346 148.593 128.088 0 -7.34848
272759 1 113.483 150.445 128.096 0 -7.37906
278516 1 105.912 126.186 132.66 0 -7.63224
796916 1 106.97 128.077 134.593 0 -7.02787
291551 1 87.9041 132.542 135.832 0 -6.26146
304279 1 118.571 131.138 142.198 0 -7.58546
317081 1 121.685 128.024 145.481 0 -8.7932
310601 1 124.807 127.957 145.512 0 -8.81219
310681 1 121.643 131.124 145.513 0 -8.76741
310760 1 118.653 134.475 145.495 0 -7.49419
316921 1 124.856 128.04 148.647 0 -8.77371
835322 1 127.988 127.981 148.717 0 -8.327
841801 1 121.718 131.145 148.638 0 -8.42877
829002 1 124.886 131.185 148.67 0 -8.58224
822522 1 124.926 128.116 151.748 0 -7.98896
343470 1 86.4639 161.536 161.02 0 -7.29613
855390 1 84.6862 159.561 164.443 0 -6.96333
349875 1 102.622 163.223 164.501 0 -6.25589
348274 1 93.0029 99.3827 166.491 0 -6.26863
405782 1 61.1328 97.4748 193.207 0 -6.25577
445073 1 94.2818 131.33 212.357 0 -6.25461
464972 1 27.303 158.104 223.864 0 -6.25495
