ITEM: TIMESTEP
79269
ITEM: NUMBER OF ATOMS
27
ITEM: BOX BOUNDS pp pp pp
0 240
0 240
0 240
ITEM: ATOMS id type x y z c_myKE c_myPE
701173 1 161.652 134.17 86.3118 0 -6.25506
744678 1 113.821 83.1228 108.515 0 -6.82648
232701 1 187.179 83.1293 108.634 0 -6.25309
771633 1 94.6905 134.025 123.543 0 -7.39603
771089 1 150.225 116.727 126.548 0 -6.63394
784273 1 99.0537 132.943 127.765 0 -7.06645
272513 1 94.6909 137.165 126.684 0 -7.39825
277975 1 164.835 99.0928 130.939 0 -6.25401
801882 1 124.618 67.1878 139.294 0 -6.2549
854204 1 130.993 111.84 164.819 0 -6.25377
219700 1 52.851 75.1641 102.612 0 -6.25473
232758 1 112.051 84.8933 106.932 0 -6.54267
246375 1 164.521 118.634 115.331 0 -6.31624
265952 1 93.106 135.756 124.954 0 -7.06643
278291 1 154.839 115.161 127.984 0 -6.82455
771090 1 151.654 118.608 128.318 0 -7.67792
278293 1 158.24 118.648 128.005 0 -6.53672
284772 1 154.914 118.615 131.334 0 -7.71015
279010 1 150.494 142.176 131.331 0 -6.258
298775 1 163.245 164.485 138.942 0 -6.26961
303978 1 177.251 116.627 140.89 0 -6.2556
304620 1 180.452 142.141 140.894 0 -6.25625
298455 1 164.374 153.578 140.815 0 -6.54759
304935 1 164.485 156.838 144.071 0 -6.83334
330624 1 193.078 159.959 156.762 0 -6.54681
335832 1 220.662 112.191 161.274 0 -6.25478
337104 1 193.2 163.216 160.018 0 -6.82263
