ITEM: TIMESTEP
79000
ITEM: NUMBER OF ATOMS
31
ITEM: BOX BOUNDS pp pp pp
0 240
0 240
0 240
ITEM: ATOMS id type x y z c_myKE c_myPE
750026 1 73.7362 41.3112 111.891 0.312331 -6.49671
764685 1 135.938 117.423 117.953 0.128811 -6.14704
776269 1 83.1693 69.1474 124.433 0.347264 -7.67723
782589 1 83.1169 65.8613 127.729 0.132408 -7.20473
790827 1 78.9685 139.186 133.159 0.185452 -7.08534
290358 1 108.674 88.0885 136.642 0.128022 -6.70657
797307 1 78.8907 142.476 135.758 0.145099 -6.81699
296108 1 79.906 57.8862 140.683 0.184239 -7.59617
808027 1 78.4507 56.3936 142.535 0.59821 -7.47525
808028 1 81.8333 56.4658 142.344 0.293937 -8.20999
814268 1 81.5514 53.2672 145.73 0.0237408 -7.41456
820669 1 85.0444 53.1625 148.748 0.180171 -7.33168
828050 1 153.544 89.7572 149.712 0.108329 -6.03148
829214 1 37.5352 139.029 151.624 0.121544 -6.04371
858261 1 57.8231 21.1914 168.095 0.0725526 -5.67734
156670 1 86.5425 116.826 68.7864 0.0922364 -5.80367
157541 1 56.2044 150.615 68.9122 0.0550383 -6.20722
201130 1 20.5319 102.577 90.9222 0.120485 -6.08981
244266 1 73.7179 33.6607 113.673 0.111022 -6.04396
257012 1 155.166 30.4661 119.881 0.0420405 -8.65673
264270 1 84.7653 67.3913 123.314 0.140483 -7.1674
782590 1 84.9611 64.351 126.119 0.133243 -7.34036
278906 1 74.1452 140.807 131.359 0.0956205 -6.23588
289966 1 135.651 69.1921 136.012 0.0909556 -7.49317
801965 1 137.319 71.1695 136.072 0.134563 -6.67327
296189 1 83.3378 60.9993 140.875 0.601577 -7.26064
302428 1 80.046 55.0505 144.257 0.0387733 -7.65517
302349 1 83.5752 54.7891 144.019 0.0359509 -7.5453
314425 1 71.7373 26.1518 147.843 0.0958268 -6.81649
315644 1 131.302 72.1305 150.775 0.0388803 -7.27912
321964 1 131.181 68.6442 153.55 0.0916526 -6.80607
