ITEM: TIMESTEP
77000
ITEM: NUMBER OF ATOMS
39
ITEM: BOX BOUNDS pp pp pp
0 240
0 240
0 240
ITEM: ATOMS id type x y z
93962 1 123.75 162.75 42.75
100208 1 141.75 156.75 45.75
106365 1 132.75 147.75 48.75
119170 1 147.75 147.75 54.75
119331 1 150.75 153.75 54.75
119413 1 156.75 156.75 54.75
125338 1 171.75 138.75 57.75
125339 1 174.75 138.75 57.75
151258 1 171.75 150.75 69.75
220601 1 120.75 111.75 102.75
220602 1 123.75 111.75 102.75
226998 1 111.75 111.75 105.75
226999 1 114.75 111.75 105.75
233157 1 108.75 102.75 108.75
233320 1 117.75 108.75 108.75
233479 1 114.75 114.75 108.75
233557 1 108.75 117.75 108.75
240122 1 123.75 123.75 111.75
240688 1 141.75 144.75 111.75
247084 1 129.75 144.75 114.75
265399 1 114.75 111.75 123.75
612362 1 125.25 164.25 47.25
612773 1 158.25 179.25 47.25
663015 1 164.25 143.25 71.25
713000 1 119.25 98.25 95.25
713557 1 110.25 119.25 95.25
720124 1 131.25 125.25 98.25
726200 1 119.25 113.25 101.25
732439 1 116.25 107.25 104.25
746366 1 137.25 149.25 110.25
746845 1 134.25 167.25 110.25
751638 1 113.25 107.25 113.25
753244 1 131.25 167.25 113.25
758521 1 122.25 125.25 116.25
764438 1 113.25 107.25 119.25
764761 1 122.25 119.25 119.25
771080 1 119.25 116.25 122.25
783798 1 113.25 113.25 128.25
816038 1 113.25 122.25 143.25
