ITEM: TIMESTEP
77239
ITEM: NUMBER OF ATOMS
36
ITEM: BOX BOUNDS pp pp pp
0 240
0 240
0 240
ITEM: ATOMS id type x y z
188278 1 111.75 99.75 87.75
194594 1 99.75 96.75 90.75
207395 1 102.75 96.75 96.75
207638 1 111.75 105.75 96.75
220357 1 108.75 102.75 102.75
220516 1 105.75 108.75 102.75
234190 1 87.75 141.75 108.75
234271 1 90.75 144.75 108.75
241228 1 81.75 165.75 111.75
246753 1 96.75 132.75 114.75
253396 1 105.75 141.75 117.75
253397 1 108.75 141.75 117.75
259555 1 102.75 132.75 120.75
265881 1 120.75 129.75 123.75
272272 1 93.75 129.75 126.75
278835 1 102.75 135.75 129.75
285394 1 99.75 141.75 132.75
304275 1 102.75 129.75 141.75
700355 1 104.25 104.25 89.25
727162 1 125.25 149.25 101.25
732189 1 86.25 98.25 104.25
732438 1 113.25 107.25 104.25
732912 1 95.25 125.25 104.25
745632 1 95.25 122.25 110.25
751631 1 92.25 107.25 113.25
758674 1 101.25 131.25 116.25
758754 1 101.25 134.25 116.25
758834 1 101.25 137.25 116.25
765074 1 101.25 131.25 119.25
765234 1 101.25 137.25 119.25
771480 1 119.25 131.25 122.25
778188 1 83.25 143.25 125.25
790673 1 98.25 131.25 131.25
790995 1 104.25 143.25 131.25
797553 1 98.25 149.25 134.25
822041 1 122.25 107.25 146.25
