ITEM: TIMESTEP
80235
ITEM: NUMBER OF ATOMS
28
ITEM: BOX BOUNDS pp pp pp
0 240
0 240
0 240
ITEM: ATOMS id type x y z
194837 1 108.75 105.75 90.75
201075 1 102.75 99.75 93.75
201157 1 108.75 102.75 93.75
213958 1 111.75 102.75 99.75
227331 1 150.75 123.75 105.75
238928 1 141.75 78.75 111.75
245412 1 153.75 81.75 114.75
245493 1 156.75 84.75 114.75
251816 1 165.75 81.75 117.75
252928 1 141.75 123.75 117.75
259091 1 150.75 114.75 120.75
264688 1 141.75 84.75 123.75
712994 1 101.25 98.25 95.25
713155 1 104.25 104.25 95.25
719557 1 110.25 104.25 98.25
738288 1 143.25 86.25 107.25
738379 1 176.25 89.25 107.25
738459 1 176.25 92.25 107.25
738539 1 176.25 95.25 107.25
744293 1 158.25 71.25 110.25
751333 1 158.25 95.25 113.25
757418 1 173.25 83.25 116.25
758452 1 155.25 122.25 116.25
764208 1 143.25 98.25 119.25
770371 1 152.25 89.25 122.25
770449 1 146.25 92.25 122.25
802778 1 173.25 104.25 137.25
802858 1 173.25 107.25 137.25
