ITEM: TIMESTEP
76000
ITEM: NUMBER OF ATOMS
37
ITEM: BOX BOUNDS pp pp pp
0 240
0 240
0 240
ITEM: ATOMS id type x y z
150205 1 132.75 111.75 69.75
234452 1 153.75 150.75 108.75
264432 1 93.75 75.75 123.75
283889 1 144.75 84.75 132.75
283968 1 141.75 87.75 132.75
283970 1 147.75 87.75 132.75
290369 1 144.75 87.75 135.75
290371 1 150.75 87.75 135.75
290450 1 147.75 90.75 135.75
290531 1 150.75 93.75 135.75
290532 1 153.75 93.75 135.75
296689 1 144.75 84.75 138.75
296770 1 147.75 87.75 138.75
296931 1 150.75 93.75 138.75
297012 1 153.75 96.75 138.75
322036 1 105.75 75.75 150.75
342688 1 141.75 129.75 159.75
342767 1 138.75 132.75 159.75
725150 1 89.25 74.25 101.25
726773 1 158.25 134.25 101.25
752773 1 158.25 149.25 113.25
770217 1 170.25 83.25 122.25
778535 1 164.25 155.25 125.25
782830 1 89.25 77.25 128.25
782911 1 92.25 80.25 128.25
795887 1 140.25 86.25 134.25
795889 1 146.25 86.25 134.25
795969 1 146.25 89.25 134.25
796051 1 152.25 92.25 134.25
796131 1 152.25 95.25 134.25
802126 1 137.25 80.25 137.25
802207 1 140.25 83.25 137.25
802532 1 155.25 95.25 137.25
808527 1 140.25 80.25 140.25
840767 1 140.25 89.25 155.25
853502 1 185.25 86.25 161.25
861014 1 161.25 128.25 164.25
