ITEM: TIMESTEP
77159
ITEM: NUMBER OF ATOMS
35
ITEM: BOX BOUNDS pp pp pp
0 240
0 240
0 240
ITEM: ATOMS id type x y z c_myKE c_myPE
681543 1 64.0041 118.213 78.7104 0 -6.25371
208284 1 132.876 129.837 97.7763 0 -6.49158
733086 1 137.567 131.095 102.209 0 -6.47457
738765 1 136.126 104.209 105.469 0 -6.2535
746288 1 145.532 147.111 108.837 0 -7.11603
746367 1 142.395 150.238 108.533 0 -6.64182
764351 1 91.47 104.207 120.164 0 -6.25264
771388 1 79.8179 127.767 123.378 0 -6.83123
784996 1 105.599 161.396 127.883 0 -7.16915
779246 1 139.314 187.15 126.554 0 -6.25261
790187 1 76.8275 113.88 132.87 0 -6.54411
285878 1 108.7 164.976 134.081 0 -7.42805
292430 1 85.0559 169.254 134.18 0 -6.25196
798440 1 120.154 187.143 134.194 0 -6.82443
799159 1 115.04 215.86 134.179 0 -6.25331
796586 1 73.5749 113.765 136.122 0 -6.82645
299320 1 116.896 187.26 137.45 0 -6.54339
867409 1 148.982 129.57 171.046 0 -6.54157
892464 1 196.716 108.654 180.775 0 -6.25377
214767 1 139.143 134.427 99.7189 0 -6.50358
228758 1 110.249 182.376 105.813 0 -6.25622
240689 1 147.328 145.34 110.349 0 -6.90706
770738 1 49.6466 100.669 121.775 0 -6.25571
259468 1 78.238 129.535 121.607 0 -6.54411
278827 1 75.1559 135.752 129.398 0 -6.265
279476 1 103.706 163.024 129.565 0 -7.4411
279477 1 107.377 163.174 129.447 0 -7.38145
284181 1 57.9713 96.2281 132.589 0 -6.25183
797877 1 107.149 163.501 132.466 0 -8.03411
285958 1 110.255 163.234 132.621 0 -7.21783
297880 1 116.628 129.371 138.968 0 -6.25133
328902 1 59.1836 91.1256 154.934 0 -6.8126
335382 1 59.1024 94.376 158.187 0 -6.51801
354031 1 89.8636 71.9693 167.667 0 -6.25412
361889 1 147.398 131.34 172.817 0 -6.82332
