ITEM: TIMESTEP
77296
ITEM: NUMBER OF ATOMS
52
ITEM: BOX BOUNDS pp pp pp
0 240
0 240
0 240
ITEM: ATOMS id type x y z
207393 1 96.75 96.75 96.75
226746 1 75.75 102.75 105.75
227393 1 96.75 126.75 105.75
232906 1 75.75 93.75 108.75
233634 1 99.75 120.75 108.75
252437 1 108.75 105.75 117.75
252916 1 105.75 123.75 117.75
259236 1 105.75 120.75 120.75
271716 1 105.75 108.75 126.75
278511 1 90.75 123.75 129.75
284438 1 111.75 105.75 132.75
284913 1 96.75 123.75 132.75
289145 1 72.75 42.75 135.75
290507 1 78.75 93.75 135.75
290835 1 102.75 105.75 135.75
296907 1 78.75 93.75 138.75
297072 1 93.75 99.75 138.75
297157 1 108.75 102.75 138.75
297232 1 93.75 105.75 138.75
297395 1 102.75 111.75 138.75
303143 1 66.75 87.75 141.75
310031 1 90.75 105.75 144.75
310269 1 84.75 114.75 144.75
310355 1 102.75 117.75 144.75
335812 1 153.75 111.75 156.75
335948 1 81.75 117.75 156.75
341297 1 48.75 78.75 159.75
347615 1 42.75 75.75 162.75
354363 1 126.75 87.75 165.75
374131 1 150.75 108.75 174.75
732114 1 101.25 95.25 104.25
738347 1 80.25 89.25 107.25
751545 1 74.25 104.25 113.25
757790 1 89.25 98.25 116.25
764358 1 113.25 104.25 119.25
770756 1 107.25 104.25 122.25
770838 1 113.25 107.25 122.25
770915 1 104.25 110.25 122.25
777072 1 95.25 101.25 125.25
777314 1 101.25 110.25 125.25
777474 1 101.25 116.25 125.25
777554 1 101.25 119.25 125.25
783306 1 77.25 95.25 128.25
789386 1 77.25 83.25 131.25
796752 1 95.25 119.25 134.25
802512 1 95.25 95.25 137.25
802752 1 95.25 104.25 137.25
802916 1 107.25 110.25 137.25
809071 1 92.25 101.25 140.25
809396 1 107.25 113.25 140.25
846981 1 62.25 83.25 158.25
854367 1 140.25 119.25 161.25
