ITEM: TIMESTEP
77000
ITEM: NUMBER OF ATOMS
40
ITEM: BOX BOUNDS pp pp pp
0 240
0 240
0 240
ITEM: ATOMS id type x y z
207393 1 96.75 96.75 96.75
220036 1 105.75 90.75 102.75
220037 1 108.75 90.75 102.75
233232 1 93.75 105.75 108.75
238997 1 108.75 81.75 111.75
239631 1 90.75 105.75 111.75
271875 1 102.75 114.75 126.75
271953 1 96.75 117.75 126.75
272030 1 87.75 120.75 126.75
290997 1 108.75 111.75 135.75
291319 1 114.75 123.75 135.75
297477 1 108.75 114.75 138.75
297635 1 102.75 120.75 138.75
323152 1 93.75 117.75 150.75
329317 1 108.75 108.75 153.75
329538 1 51.75 117.75 153.75
335802 1 123.75 111.75 156.75
336098 1 51.75 123.75 156.75
336416 1 45.75 135.75 156.75
355149 1 84.75 117.75 165.75
368017 1 48.75 120.75 171.75
744189 1 86.25 68.25 110.25
769555 1 104.25 59.25 122.25
783795 1 104.25 113.25 128.25
788833 1 98.25 62.25 131.25
796837 1 110.25 122.25 134.25
803234 1 101.25 122.25 137.25
809312 1 95.25 110.25 140.25
809624 1 71.25 122.25 140.25
828354 1 101.25 104.25 149.25
828512 1 95.25 110.25 149.25
828673 1 98.25 116.25 149.25
828674 1 101.25 116.25 149.25
828676 1 107.25 116.25 149.25
828677 1 110.25 116.25 149.25
834914 1 101.25 110.25 152.25
841397 1 110.25 113.25 155.25
841398 1 113.25 113.25 155.25
860681 1 122.25 116.25 164.25
873318 1 113.25 110.25 170.25
