ITEM: TIMESTEP
79220
ITEM: NUMBER OF ATOMS
46
ITEM: BOX BOUNDS pp pp pp
0 240
0 240
0 240
ITEM: ATOMS id type x y z c_myKE c_myPE
701490 1 153.501 143.625 86.3175 0 -7.1677
720608 1 143.759 142.444 94.7136 0 -7.93113
727008 1 147.081 142.417 97.7176 0 -8.77845
202290 1 150.217 145.683 97.7219 0 -8.12688
733327 1 142.455 140.716 102.248 0 -8.28076
726928 1 147.072 139.267 100.866 0 -8.45424
727009 1 150.246 142.388 100.87 0 -8.81659
726930 1 153.337 142.323 100.877 0 -8.51565
733249 1 150.324 139.267 104.159 0 -7.8738
733330 1 153.409 142.345 103.987 0 -8.45978
739971 1 156.487 145.545 104.143 0 -8.26281
227974 1 159.666 145.59 104.09 0 -7.43693
739811 1 156.634 145.499 107.354 0 -7.91897
751303 1 67.1867 94.6717 111.853 0 -6.25368
783390 1 88.3818 97.7037 131.152 0 -6.54182
797719 1 115.004 158.486 134.195 0 -6.25431
842297 1 174.388 148.897 156.495 0 -6.25485
150774 1 161.319 131.38 67.4429 0 -6.26239
663580 1 185.67 167.762 67.4515 0 -6.5419
157981 1 185.555 164.505 70.7073 0 -6.8227
183090 1 151.993 142.381 81.3914 0 -7.14695
188423 1 62.4015 103.891 84.7412 0 -6.25359
189412 1 154.975 141.968 84.7186 0 -7.20934
695089 1 151.75 145.08 84.7712 0 -7.10511
207574 1 161.283 100.685 94.302 0 -6.81735
214054 1 161.187 103.935 97.5666 0 -6.52481
720607 1 144.021 142.373 97.6556 0 -8.44681
215008 1 145.513 144.009 96.0776 0 -8.26943
727090 1 148.577 144.001 96.1317 0 -8.34504
727007 1 140.879 142.332 100.725 0 -7.84976
720527 1 145.508 140.832 99.2988 0 -8.73549
215009 1 148.625 140.841 99.3355 0 -8.77382
727168 1 148.713 143.987 99.2503 0 -8.76501
221411 1 151.84 143.999 99.2988 0 -8.38653
227728 1 143.993 139.02 103.786 0 -7.43704
739729 1 147.227 142.406 103.968 0 -8.53759
739730 1 151.754 140.813 102.495 0 -8.70714
727011 1 154.881 143.985 102.438 0 -8.30742
733572 1 156.738 148.4 103.896 0 -7.48218
227811 1 151.817 140.888 105.748 0 -8.27094
227892 1 154.981 143.848 105.68 0 -8.37526
260303 1 191.93 163.25 121.751 0 -6.2544
771557 1 107.019 142.189 124.967 0 -6.25783
783551 1 86.7996 99.4734 129.382 0 -6.82673
289152 1 91.1089 36.9079 137.712 0 -6.2538
305181 1 182.36 166.444 144.087 0 -6.25231
