ITEM: TIMESTEP
79000
ITEM: NUMBER OF ATOMS
36
ITEM: BOX BOUNDS pp pp pp
0 240
0 240
0 240
ITEM: ATOMS id type x y z
162598 1 111.75 96.75 75.75
228435 1 102.75 165.75 105.75
233235 1 102.75 105.75 108.75
233237 1 108.75 105.75 108.75
233316 1 105.75 108.75 108.75
239557 1 108.75 102.75 111.75
239636 1 105.75 105.75 111.75
239715 1 102.75 108.75 111.75
239876 1 105.75 114.75 111.75
239957 1 108.75 117.75 111.75
246115 1 102.75 108.75 114.75
246198 1 111.75 111.75 114.75
246277 1 108.75 114.75 114.75
252597 1 108.75 111.75 117.75
298348 1 81.75 147.75 138.75
316514 1 99.75 108.75 147.75
322915 1 102.75 108.75 150.75
322994 1 99.75 111.75 150.75
329235 1 102.75 105.75 153.75
329314 1 99.75 108.75 153.75
395087 1 138.75 174.75 183.75
687239 1 116.25 92.25 83.25
732356 1 107.25 104.25 104.25
745477 1 110.25 116.25 110.25
751637 1 110.25 107.25 113.25
751718 1 113.25 110.25 113.25
751876 1 107.25 116.25 113.25
758036 1 107.25 107.25 116.25
758115 1 104.25 110.25 116.25
764516 1 107.25 110.25 119.25
784499 1 56.25 140.25 128.25
809803 1 128.25 128.25 140.25
834835 1 104.25 107.25 152.25
834993 1 98.25 113.25 152.25
847715 1 104.25 110.25 158.25
867628 1 83.25 137.25 167.25
