ITEM: TIMESTEP
84000
ITEM: NUMBER OF ATOMS
43
ITEM: BOX BOUNDS pp pp pp
0 240
0 240
0 240
ITEM: ATOMS id type x y z
169237 1 108.75 105.75 78.75
175638 1 111.75 105.75 81.75
201633 1 96.75 120.75 93.75
208113 1 96.75 123.75 96.75
259953 1 96.75 147.75 120.75
272522 1 123.75 138.75 126.75
272858 1 171.75 150.75 126.75
317506 1 195.75 144.75 147.75
329980 1 177.75 132.75 153.75
330061 1 180.75 135.75 153.75
330062 1 183.75 135.75 153.75
363083 1 126.75 174.75 168.75
368052 1 153.75 120.75 171.75
376207 1 138.75 186.75 174.75
402466 1 195.75 210.75 186.75
408301 1 180.75 189.75 189.75
408302 1 183.75 189.75 189.75
414224 1 189.75 171.75 192.75
420623 1 186.75 171.75 195.75
453745 1 192.75 213.75 210.75
674691 1 152.25 101.25 77.25
706450 1 149.25 92.25 92.25
712770 1 149.25 89.25 95.25
713552 1 95.25 119.25 95.25
731555 1 104.25 74.25 104.25
762904 1 71.25 50.25 119.25
784522 1 125.25 140.25 128.25
789229 1 86.25 77.25 131.25
791002 1 125.25 143.25 131.25
809407 1 140.25 113.25 140.25
815887 1 140.25 116.25 143.25
842061 1 182.25 137.25 155.25
848301 1 182.25 131.25 158.25
888301 1 182.25 191.25 176.25
893550 1 89.25 149.25 179.25
899967 1 140.25 149.25 182.25
907502 1 185.25 191.25 185.25
908065 1 194.25 212.25 185.25
913821 1 182.25 188.25 188.25
913901 1 182.25 191.25 188.25
926143 1 188.25 170.25 194.25
926223 1 188.25 173.25 194.25
1004221 1 182.25 218.25 230.25
