ITEM: TIMESTEP
78628
ITEM: NUMBER OF ATOMS
25
ITEM: BOX BOUNDS pp pp pp
0 240
0 240
0 240
ITEM: ATOMS id type x y z c_myKE c_myPE
675468 1 81.888 132.924 75.5021 0 -6.25449
271799 1 114.936 110.576 124.616 0 -6.29423
776996 1 104.233 94.6337 127.792 0 -6.26816
808678 1 113.669 84.9199 140.483 0 -8.27128
303157 1 110.524 88.2114 140.537 0 -8.55472
815158 1 113.808 88.1325 143.725 0 -7.96865
827722 1 124.475 76.8171 151.984 0 -6.53446
834042 1 124.574 73.5582 155.244 0 -6.83394
155961 1 121.762 84.7265 68.7736 0 -6.25463
163158 1 110.243 116.625 71.9622 0 -6.25467
181162 1 123.004 68.7772 81.5351 0 -6.25489
188192 1 91.1059 96.2374 87.9148 0 -6.25502
706265 1 71.9652 83.4748 93.0543 0 -6.25497
283958 1 112.038 86.5094 135.85 0 -7.82867
285003 1 126.086 128.067 134.424 0 -6.53297
296678 1 112.029 83.3292 138.998 0 -7.72809
802356 1 108.863 86.5707 139.034 0 -7.77665
290439 1 113.509 87.9705 137.631 0 -8.54242
291483 1 126.19 131.318 137.688 0 -6.82042
303158 1 112.144 86.5707 142.133 0 -8.68539
303159 1 115.259 86.4871 142.079 0 -8.00622
303237 1 109.184 89.9032 142.202 0 -7.51857
303238 1 112.092 89.7116 142.229 0 -8.00457
304515 1 100.669 138.941 142.142 0 -6.25419
309559 1 115.487 86.5893 145.11 0 -7.60803
