ITEM: TIMESTEP
83000
ITEM: NUMBER OF ATOMS
38
ITEM: BOX BOUNDS pp pp pp
0 240
0 240
0 240
ITEM: ATOMS id type x y z
220437 1 108.75 105.75 102.75
252034 1 99.75 90.75 117.75
258510 1 87.75 93.75 120.75
277867 1 78.75 99.75 129.75
277948 1 81.75 102.75 129.75
278033 1 96.75 105.75 129.75
284591 1 90.75 111.75 132.75
290750 1 87.75 102.75 135.75
290911 1 90.75 108.75 135.75
290991 1 90.75 111.75 135.75
296985 1 72.75 96.75 138.75
297626 1 75.75 120.75 138.75
303557 1 108.75 102.75 141.75
322993 1 96.75 111.75 150.75
354915 1 102.75 108.75 165.75
373567 1 138.75 87.75 174.75
392608 1 141.75 81.75 183.75
411259 1 174.75 60.75 192.75
423738 1 171.75 48.75 198.75
725793 1 98.25 98.25 101.25
751149 1 86.25 89.25 113.25
770198 1 113.25 83.25 122.25
770507 1 80.25 95.25 122.25
776828 1 83.25 92.25 125.25
796352 1 95.25 104.25 134.25
796509 1 86.25 110.25 134.25
809310 1 89.25 110.25 140.25
809471 1 92.25 116.25 140.25
815305 1 74.25 95.25 143.25
815710 1 89.25 110.25 143.25
821708 1 83.25 95.25 146.25
828511 1 92.25 110.25 149.25
872760 1 119.25 89.25 170.25
873164 1 131.25 104.25 170.25
891729 1 146.25 80.25 179.25
904607 1 140.25 83.25 185.25
929178 1 173.25 44.25 197.25
948616 1 167.25 53.25 206.25
