ITEM: TIMESTEP
78799
ITEM: NUMBER OF ATOMS
46
ITEM: BOX BOUNDS pp pp pp
0 240
0 240
0 240
ITEM: ATOMS id type x y z c_myKE c_myPE
630586 1 75.504 129.752 49.9936 0 -6.25483
656116 1 110.589 126.557 62.7523 0 -6.25341
670826 1 75.5139 203.122 70.3679 0 -6.25399
713462 1 60.8038 116.995 94.6582 0 -6.25626
750214 1 164.827 48.0528 110.592 0 -6.25483
259947 1 75.3613 150.2 116.884 0 -7.69996
771545 1 72.3327 136.122 121.385 0 -6.33773
772027 1 75.3646 153.378 120.076 0 -8.71496
765708 1 78.5104 153.432 120.033 0 -8.20064
772187 1 78.6227 156.384 120.049 0 -8.17764
260029 1 81.7156 156.733 123.252 0 -7.61238
785067 1 75.5488 161.738 127.875 0 -7.60365
783556 1 107.406 104.214 129.739 0 -6.25399
791465 1 72.3222 164.852 130.957 0 -8.04072
804266 1 75.5177 164.754 134.04 0 -7.94796
805083 1 129.729 196.727 137.341 0 -6.25251
866690 1 149.703 101.006 171.302 0 -7.01255
873169 1 147.233 104.3 172.689 0 -7.52111
873088 1 145.896 101.114 175.256 0 -7.08716
874668 1 81.8934 164.838 174.403 0 -6.25431
157146 1 71.963 134.538 68.7843 0 -6.25534
221382 1 61.1516 142.183 100.684 0 -6.25745
257892 1 154.902 65.5993 119.809 0 -6.25481
259867 1 75.3544 147.168 120.031 0 -7.65832
259946 1 72.0883 150.295 120.023 0 -7.82259
253547 1 73.8359 151.755 118.52 0 -8.63249
266427 1 76.9514 151.766 118.456 0 -8.22702
765546 1 73.7069 151.868 121.663 0 -8.27338
771947 1 73.792 154.878 121.702 0 -8.31113
772028 1 76.9151 155.009 121.664 0 -8.66493
778586 1 77.1023 158.006 121.559 0 -8.19859
784908 1 76.8725 155.096 124.896 0 -8.01648
266509 1 80.0159 158.242 124.993 0 -7.63225
778585 1 73.7335 163.028 126.226 0 -7.53981
778665 1 70.5862 163.091 129.463 0 -7.51498
785065 1 73.7411 163.15 129.444 0 -7.84771
279466 1 75.2118 164.676 131.231 0 -8.04241
285947 1 78.1522 164.518 131.143 0 -7.67881
286028 1 81.3257 167.745 131.46 0 -7.59878
292268 1 80.3026 163.138 136.003 0 -6.68104
285867 1 76.994 166.453 135.745 0 -7.30009
292840 1 118.561 185.563 135.744 0 -6.26092
318261 1 57.9643 179.181 148.522 0 -6.26006
329549 1 81.5412 116.615 154.928 0 -6.25437
336041 1 126.2 121.767 160.048 0 -6.25472
354848 1 144.006 103.724 169.524 0 -6.71911
