ITEM: TIMESTEP
80000
ITEM: NUMBER OF ATOMS
34
ITEM: BOX BOUNDS pp pp pp
0 240
0 240
0 240
ITEM: ATOMS id type x y z c_myKE c_myPE
731948 1 80.0043 88.0436 102.4 0.0250559 -7.00747
732027 1 76.6664 91.7334 102.212 0.0448328 -7.4228
738347 1 76.7917 88.4134 105.553 0.287525 -7.29654
744667 1 76.7574 85.1565 108.48 0.0498547 -6.54129
738589 1 82.6881 97.8312 107.454 0.248691 -6.60253
757945 1 72.2177 104.187 116.975 0.129306 -6.71451
782599 1 116.953 66.5396 129.68 0.374909 -6.04105
802353 1 97.8933 89.6156 139.371 0.0554368 -6.56345
814613 1 161.603 63.9337 145.255 0.293297 -5.71571
822914 1 100.917 140.657 150.382 0.572841 -6.22218
310994 1 99.0436 142.668 149.028 0.307849 -7.38053
836360 1 118.03 167.9 152.978 0.0652328 -6.91657
835395 1 102.259 129.439 156.173 0.149783 -6.46939
840690 1 148.949 83.2428 158.592 0.0924796 -6.24465
859412 1 155.019 64.0269 164.656 0.15651 -6.00411
866287 1 142.407 86.2884 172.582 0.122229 -6.36498
879006 1 140.447 84.6732 174.304 0.0781848 -6.9768
880196 1 107.524 129.475 177.392 0.170299 -6.48191
884365 1 136.075 38.2256 180.688 0.230868 -5.65894
438044 1 126.426 107.436 210.848 0.0498832 -6.72179
955735 1 166.563 76.5918 215.741 0.111372 -6.33977
246025 1 70.4887 105.834 115.345 0.280255 -6.47877
296915 1 100.461 89.9247 138.788 0.341524 -7.08011
303949 1 81.6155 116.849 144.24 0.0669911 -6.60712
316199 1 113.523 96.3866 150.408 0.0653488 -6.09704
329962 1 123.019 134.412 154.751 0.257126 -6.38506
841815 1 169.779 129.087 158.592 0.240731 -5.64077
349803 1 128.279 158.586 164.303 0.0505024 -5.51283
359649 1 147.223 41.9951 171.209 0.022207 -6.22841
866208 1 142.067 80.3703 169.833 0.475893 -6.74876
372995 1 102.447 62.3698 178.973 0.0147254 -5.93244
379799 1 113.431 78.2527 182.545 0.0490532 -6.59036
387972 1 154.736 150.451 183.434 0.0286155 -5.99805
431092 1 157.083 81.889 206.232 0.0324041 -6.33031
