ITEM: TIMESTEP
78000
ITEM: NUMBER OF ATOMS
25
ITEM: BOX BOUNDS pp pp pp
0 240
0 240
0 240
ITEM: ATOMS id type x y z
195644 1 129.75 135.75 90.75
221722 1 123.75 153.75 102.75
233643 1 126.75 120.75 108.75
246679 1 114.75 129.75 114.75
247000 1 117.75 141.75 114.75
272669 1 84.75 144.75 126.75
279229 1 84.75 150.75 129.75
284522 1 123.75 108.75 132.75
291950 1 87.75 147.75 135.75
317715 1 102.75 153.75 147.75
694592 1 95.25 128.25 86.25
701636 1 107.25 152.25 89.25
707310 1 89.25 125.25 92.25
726682 1 125.25 131.25 101.25
739312 1 95.25 125.25 107.25
745475 1 104.25 116.25 110.25
752281 1 122.25 131.25 113.25
752356 1 107.25 134.25 113.25
758446 1 137.25 122.25 116.25
758754 1 101.25 134.25 116.25
758925 1 134.25 140.25 116.25
784750 1 89.25 149.25 128.25
797629 1 86.25 152.25 134.25
803794 1 101.25 143.25 137.25
804115 1 104.25 155.25 137.25
