ITEM: TIMESTEP
75000
ITEM: NUMBER OF ATOMS
32
ITEM: BOX BOUNDS pp pp pp
0 240
0 240
0 240
ITEM: ATOMS id type x y z
194204 1 129.75 81.75 90.75
226672 1 93.75 99.75 105.75
239319 1 114.75 93.75 111.75
245881 1 120.75 99.75 114.75
246275 1 102.75 114.75 114.75
252596 1 105.75 111.75 117.75
252835 1 102.75 120.75 117.75
258753 1 96.75 102.75 120.75
258758 1 111.75 102.75 120.75
259154 1 99.75 117.75 120.75
259309 1 84.75 123.75 120.75
264993 1 96.75 96.75 123.75
272190 1 87.75 126.75 126.75
277868 1 81.75 99.75 129.75
278353 1 96.75 117.75 129.75
278433 1 96.75 120.75 129.75
718927 1 140.25 80.25 98.25
732110 1 89.25 95.25 104.25
750432 1 95.25 62.25 113.25
751230 1 89.25 92.25 113.25
751321 1 122.25 95.25 113.25
751710 1 89.25 110.25 113.25
752035 1 104.25 122.25 113.25
757953 1 98.25 104.25 116.25
758035 1 104.25 107.25 116.25
764353 1 98.25 104.25 119.25
770829 1 86.25 107.25 122.25
770916 1 107.25 110.25 122.25
782993 1 98.25 83.25 128.25
783310 1 89.25 95.25 128.25
783471 1 92.25 101.25 128.25
803152 1 95.25 119.25 137.25
