ITEM: TIMESTEP
83306
ITEM: NUMBER OF ATOMS
36
ITEM: BOX BOUNDS pp pp pp
0 240
0 240
0 240
ITEM: ATOMS id type x y z
239471 1 90.75 99.75 111.75
264839 1 114.75 90.75 123.75
303072 1 93.75 84.75 141.75
310125 1 132.75 108.75 144.75
316447 1 138.75 105.75 147.75
316526 1 135.75 108.75 147.75
316605 1 132.75 111.75 147.75
322927 1 138.75 108.75 150.75
329554 1 99.75 117.75 153.75
343392 1 93.75 156.75 159.75
355275 1 222.75 120.75 165.75
361595 1 222.75 117.75 168.75
361674 1 219.75 120.75 168.75
386605 1 132.75 96.75 180.75
386932 1 153.75 108.75 180.75
387011 1 150.75 111.75 180.75
393252 1 153.75 105.75 183.75
393331 1 150.75 108.75 183.75
399732 1 153.75 108.75 186.75
419337 1 168.75 123.75 195.75
432393 1 216.75 132.75 201.75
777708 1 83.25 125.25 125.25
821570 1 149.25 89.25 146.25
828929 1 146.25 125.25 149.25
835330 1 149.25 125.25 152.25
847081 1 122.25 86.25 158.25
853401 1 122.25 83.25 161.25
853496 1 167.25 86.25 161.25
860790 1 209.25 119.25 164.25
860871 1 212.25 122.25 164.25
873595 1 224.25 119.25 170.25
898771 1 152.25 104.25 182.25
898850 1 149.25 107.25 182.25
924869 1 206.25 122.25 194.25
931189 1 206.25 119.25 197.25
931268 1 203.25 122.25 197.25
