ITEM: TIMESTEP
78000
ITEM: NUMBER OF ATOMS
28
ITEM: BOX BOUNDS pp pp pp
0 240
0 240
0 240
ITEM: ATOMS id type x y z
137477 1 108.75 114.75 63.75
203393 1 96.75 186.75 93.75
208916 1 105.75 153.75 96.75
208917 1 108.75 153.75 96.75
215317 1 108.75 153.75 99.75
220510 1 87.75 108.75 102.75
222992 1 93.75 201.75 102.75
235561 1 120.75 192.75 108.75
240989 1 84.75 156.75 111.75
257165 1 132.75 42.75 120.75
264672 1 93.75 84.75 123.75
271640 1 117.75 105.75 126.75
302593 1 96.75 66.75 141.75
667231 1 92.25 62.25 74.25
689311 1 92.25 170.25 83.25
699712 1 95.25 80.25 89.25
708914 1 101.25 185.25 92.25
715313 1 98.25 185.25 95.25
720756 1 107.25 149.25 98.25
720836 1 107.25 152.25 98.25
720917 1 110.25 155.25 98.25
727236 1 107.25 152.25 101.25
727237 1 110.25 152.25 101.25
770758 1 113.25 104.25 122.25
776591 1 92.25 83.25 125.25
777159 1 116.25 104.25 125.25
804603 1 128.25 173.25 137.25
820597 1 110.25 53.25 146.25
