ITEM: TIMESTEP
78293
ITEM: NUMBER OF ATOMS
14
ITEM: BOX BOUNDS pp pp pp
0 240
0 240
0 240
ITEM: ATOMS id type x y z
258997 1 108.75 111.75 120.75
264999 1 114.75 96.75 123.75
277719 1 114.75 93.75 129.75
278123 1 126.75 108.75 129.75
284040 1 117.75 90.75 132.75
738600 1 119.25 98.25 107.25
744917 1 110.25 95.25 110.25
764279 1 116.25 101.25 119.25
771234 1 101.25 122.25 122.25
777551 1 92.25 119.25 125.25
783480 1 119.25 101.25 128.25
783637 1 110.25 107.25 128.25
784275 1 104.25 131.25 128.25
809161 1 122.25 104.25 140.25
