ITEM: TIMESTEP
78000
ITEM: NUMBER OF ATOMS
33
ITEM: BOX BOUNDS pp pp pp
0 240
0 240
0 240
ITEM: ATOMS id type x y z
214670 1 87.75 129.75 99.75
220191 1 90.75 96.75 102.75
220910 1 87.75 123.75 102.75
220911 1 90.75 123.75 102.75
227153 1 96.75 117.75 105.75
227154 1 99.75 117.75 105.75
227633 1 96.75 135.75 105.75
239711 1 90.75 108.75 111.75
278527 1 138.75 123.75 129.75
316524 1 129.75 108.75 147.75
316772 1 153.75 117.75 147.75
329805 1 132.75 126.75 153.75
349164 1 129.75 132.75 162.75
349323 1 126.75 138.75 162.75
355249 1 144.75 120.75 165.75
719791 1 92.25 113.25 98.25
720112 1 95.25 125.25 98.25
720272 1 95.25 131.25 98.25
725712 1 95.25 95.25 101.25
732827 1 80.25 122.25 104.25
732903 1 68.25 125.25 104.25
732904 1 71.25 125.25 104.25
733384 1 71.25 143.25 104.25
751552 1 95.25 104.25 113.25
764509 1 86.25 110.25 119.25
777311 1 92.25 110.25 125.25
816208 1 143.25 128.25 143.25
828766 1 137.25 119.25 149.25
835330 1 149.25 125.25 152.25
841729 1 146.25 125.25 155.25
855008 1 143.25 143.25 161.25
886763 1 128.25 134.25 176.25
899325 1 134.25 125.25 182.25
