ITEM: TIMESTEP
77000
ITEM: NUMBER OF ATOMS
20
ITEM: BOX BOUNDS pp pp pp
0 240
0 240
0 240
ITEM: ATOMS id type x y z
342360 1 117.75 117.75 159.75
347641 1 120.75 75.75 162.75
355003 1 126.75 111.75 165.75
361404 1 129.75 111.75 168.75
361483 1 126.75 114.75 168.75
386915 1 102.75 108.75 180.75
687562 1 125.25 104.25 83.25
744202 1 125.25 68.25 110.25
769545 1 74.25 59.25 122.25
790363 1 128.25 119.25 131.25
795155 1 104.25 59.25 134.25
796843 1 128.25 122.25 134.25
802754 1 101.25 104.25 137.25
803569 1 146.25 134.25 137.25
808353 1 98.25 74.25 140.25
822036 1 107.25 107.25 146.25
847959 1 116.25 119.25 158.25
942669 1 86.25 71.25 203.25
949476 1 107.25 86.25 206.25
955956 1 107.25 89.25 209.25
