ITEM: TIMESTEP
78000
ITEM: NUMBER OF ATOMS
37
ITEM: BOX BOUNDS pp pp pp
0 240
0 240
0 240
ITEM: ATOMS id type x y z
201404 1 129.75 111.75 93.75
201723 1 126.75 123.75 93.75
207393 1 96.75 96.75 96.75
207641 1 120.75 105.75 96.75
221323 1 126.75 138.75 102.75
233000 1 117.75 96.75 108.75
239878 1 111.75 114.75 111.75
240284 1 129.75 129.75 111.75
240600 1 117.75 141.75 111.75
240758 1 111.75 147.75 111.75
246438 1 111.75 120.75 114.75
246522 1 123.75 123.75 114.75
246758 1 111.75 132.75 114.75
246840 1 117.75 135.75 114.75
253404 1 129.75 141.75 117.75
265878 1 111.75 129.75 123.75
330196 1 105.75 141.75 153.75
700444 1 131.25 107.25 89.25
719481 1 122.25 101.25 98.25
719482 1 125.25 101.25 98.25
719565 1 134.25 104.25 98.25
726678 1 113.25 131.25 101.25
732681 1 122.25 116.25 104.25
732683 1 128.25 116.25 104.25
732763 1 128.25 119.25 104.25
733245 1 134.25 137.25 104.25
733318 1 113.25 140.25 104.25
739322 1 125.25 125.25 107.25
739480 1 119.25 131.25 107.25
739722 1 125.25 140.25 107.25
745642 1 125.25 122.25 110.25
745963 1 128.25 134.25 110.25
751883 1 128.25 116.25 113.25
757637 1 110.25 92.25 116.25
758920 1 119.25 140.25 116.25
778123 1 128.25 140.25 125.25
842275 1 104.25 146.25 155.25
