ITEM: TIMESTEP
78270
ITEM: NUMBER OF ATOMS
36
ITEM: BOX BOUNDS pp pp pp
0 240
0 240
0 240
ITEM: ATOMS id type x y z
170760 1 117.75 162.75 78.75
175658 1 171.75 105.75 81.75
176124 1 129.75 123.75 81.75
176764 1 129.75 147.75 81.75
177162 1 123.75 162.75 81.75
195001 1 120.75 111.75 90.75
195255 1 162.75 120.75 90.75
195262 1 183.75 120.75 90.75
201239 1 114.75 105.75 93.75
202126 1 135.75 138.75 93.75
207963 1 126.75 117.75 96.75
208049 1 144.75 120.75 96.75
208053 1 156.75 120.75 96.75
208282 1 123.75 129.75 96.75
220201 1 120.75 96.75 102.75
220364 1 129.75 102.75 102.75
220691 1 150.75 114.75 102.75
227411 1 150.75 126.75 105.75
239720 1 117.75 108.75 111.75
239968 1 141.75 117.75 111.75
246446 1 135.75 120.75 114.75
252448 1 141.75 105.75 117.75
342379 1 174.75 117.75 159.75
688049 1 146.25 122.25 83.25
694295 1 164.25 116.25 86.25
700853 1 158.25 122.25 89.25
700926 1 137.25 125.25 89.25
706924 1 131.25 110.25 92.25
712923 1 128.25 95.25 95.25
714206 1 137.25 143.25 95.25
720124 1 131.25 125.25 98.25
720125 1 134.25 125.25 98.25
726042 1 125.25 107.25 101.25
757805 1 134.25 98.25 116.25
771177 1 170.25 119.25 122.25
810138 1 173.25 140.25 140.25
