ITEM: TIMESTEP
77000
ITEM: NUMBER OF ATOMS
34
ITEM: BOX BOUNDS pp pp pp
0 240
0 240
0 240
ITEM: ATOMS id type x y z
201079 1 114.75 99.75 93.75
207393 1 96.75 96.75 96.75
238995 1 102.75 81.75 111.75
239398 1 111.75 96.75 111.75
240058 1 171.75 120.75 111.75
245798 1 111.75 96.75 114.75
246259 1 54.75 114.75 114.75
252364 1 129.75 102.75 117.75
258678 1 111.75 99.75 120.75
265081 1 120.75 99.75 123.75
265974 1 159.75 132.75 123.75
271483 1 126.75 99.75 126.75
271977 1 168.75 117.75 126.75
278604 1 129.75 126.75 129.75
290912 1 93.75 108.75 135.75
310465 1 192.75 120.75 144.75
317258 1 171.75 135.75 147.75
317421 1 180.75 141.75 147.75
713073 1 98.25 101.25 95.25
744916 1 107.25 95.25 110.25
745470 1 89.25 116.25 110.25
751316 1 107.25 95.25 113.25
751317 1 110.25 95.25 113.25
751779 1 56.25 113.25 113.25
757558 1 113.25 89.25 116.25
764514 1 101.25 110.25 119.25
784696 1 167.25 146.25 128.25
809664 1 191.25 122.25 140.25
810134 1 161.25 140.25 140.25
810295 1 164.25 146.25 140.25
822221 1 182.25 113.25 146.25
822701 1 182.25 131.25 146.25
835338 1 173.25 125.25 152.25
848220 1 179.25 128.25 158.25
