ITEM: TIMESTEP
74000
ITEM: NUMBER OF ATOMS
31
ITEM: BOX BOUNDS pp pp pp
0 240
0 240
0 240
ITEM: ATOMS id type x y z
169716 1 105.75 123.75 78.75
175875 1 102.75 114.75 81.75
189157 1 108.75 132.75 87.75
195398 1 111.75 126.75 90.75
195557 1 108.75 132.75 90.75
195723 1 126.75 138.75 90.75
201630 1 87.75 120.75 93.75
207877 1 108.75 114.75 96.75
208522 1 123.75 138.75 96.75
226437 1 108.75 90.75 105.75
264353 1 96.75 72.75 123.75
265393 1 96.75 111.75 123.75
271391 1 90.75 96.75 126.75
277316 1 105.75 78.75 129.75
290511 1 90.75 93.75 135.75
290522 1 123.75 93.75 135.75
290837 1 108.75 105.75 135.75
304192 1 93.75 126.75 141.75
316035 1 102.75 90.75 147.75
341402 1 123.75 81.75 159.75
700356 1 107.25 104.25 89.25
700757 1 110.25 119.25 89.25
707157 1 110.25 119.25 92.25
720037 1 110.25 122.25 98.25
720680 1 119.25 146.25 98.25
726437 1 110.25 122.25 101.25
726674 1 101.25 131.25 101.25
733238 1 113.25 137.25 104.25
776434 1 101.25 77.25 125.25
815076 1 107.25 86.25 143.25
821317 1 110.25 80.25 146.25
