ITEM: TIMESTEP
84000
ITEM: NUMBER OF ATOMS
37
ITEM: BOX BOUNDS pp pp pp
0 240
0 240
0 240
ITEM: ATOMS id type x y z
164876 1 225.75 180.75 75.75
183770 1 27.75 171.75 84.75
183840 1 237.75 171.75 84.75
196647 1 18.75 174.75 90.75
203286 1 15.75 183.75 93.75
208659 1 54.75 144.75 96.75
209686 1 15.75 183.75 96.75
214824 1 69.75 135.75 99.75
228727 1 18.75 177.75 105.75
233073 1 96.75 99.75 108.75
233475 1 102.75 114.75 108.75
239635 1 102.75 105.75 111.75
239714 1 99.75 108.75 111.75
240111 1 90.75 123.75 111.75
246039 1 114.75 105.75 114.75
246276 1 105.75 114.75 114.75
252432 1 93.75 105.75 117.75
252437 1 108.75 105.75 117.75
252672 1 93.75 114.75 117.75
258834 1 99.75 105.75 120.75
315627 1 78.75 75.75 147.75
714259 1 56.25 146.25 95.25
714494 1 41.25 155.25 95.25
738752 1 95.25 104.25 107.25
738753 1 98.25 104.25 107.25
739154 1 101.25 119.25 107.25
745315 1 104.25 110.25 110.25
751480 1 119.25 101.25 113.25
751554 1 101.25 104.25 113.25
751715 1 104.25 110.25 113.25
757952 1 95.25 104.25 116.25
758193 1 98.25 113.25 116.25
758270 1 89.25 116.25 116.25
758274 1 101.25 116.25 116.25
764432 1 95.25 107.25 119.25
764674 1 101.25 116.25 119.25
764835 1 104.25 122.25 119.25
