ITEM: TIMESTEP
79154
ITEM: NUMBER OF ATOMS
23
ITEM: BOX BOUNDS pp pp pp
0 240
0 240
0 240
ITEM: ATOMS id type x y z
226455 1 162.75 90.75 105.75
239872 1 93.75 114.75 111.75
251173 1 156.75 57.75 117.75
252195 1 102.75 96.75 117.75
263969 1 144.75 57.75 123.75
264048 1 141.75 60.75 123.75
270449 1 144.75 60.75 126.75
276929 1 144.75 63.75 129.75
726590 1 89.25 128.25 101.25
751711 1 92.25 110.25 113.25
751790 1 89.25 113.25 113.25
751791 1 92.25 113.25 113.25
770118 1 113.25 80.25 122.25
775968 1 143.25 59.25 125.25
775969 1 146.25 59.25 125.25
776048 1 143.25 62.25 125.25
782447 1 140.25 62.25 128.25
782448 1 143.25 62.25 128.25
782528 1 143.25 65.25 128.25
789318 1 113.25 80.25 131.25
809242 1 125.25 107.25 140.25
815722 1 125.25 110.25 143.25
822202 1 125.25 113.25 146.25
