ITEM: TIMESTEP
76000
ITEM: NUMBER OF ATOMS
29
ITEM: BOX BOUNDS pp pp pp
0 240
0 240
0 240
ITEM: ATOMS id type x y z c_myKE c_myPE
644758 1 111.848 183.81 57.9229 0.0182712 -7.01525
651078 1 111.824 180.647 61.0584 0.206289 -6.61907
651157 1 108.662 183.822 60.8112 0.0205312 0
200280 1 116.508 66.3893 94.3536 0.0840021 -5.95179
239305 1 67.4967 92.5977 108.751 0.223645 -7.91563
744904 1 63.81 94.3915 106.992 0.153823 -7.21902
766270 1 86.1643 180.749 118.203 0.295624 -6.63094
771800 1 120.466 143.758 123.107 0.0322754 -6.95869
779312 1 92.6813 190.431 124.652 0.0845732 -6.95533
264679 1 114.727 81.8664 126.861 0.231304 -6.47952
265634 1 98.8857 118.091 126.554 0.613006 -6.7194
778120 1 120.119 140.618 126.253 0.066506 -6.76077
778201 1 123.494 143.636 126.507 0.525809 -7.65113
78914 1 97.5721 75.129 32.5185 0.928664 -6.33293
92358 1 109.939 102.547 39.1507 0.501998 -6.36338
139238 1 110.045 185.582 59.2615 0.245068 -7.42224
156837 1 106.988 119.635 67.4632 0.180938 -6.43256
175075 1 100.817 81.553 81.7582 0.166611 -6.51479
200200 1 116.623 64.5469 92.6519 0.386648 -5.90214
209308 1 77.9215 169.616 94.2023 0.261026 -7.06621
220105 1 69.1992 92.8858 103.523 0.205481 -7.35976
226584 1 65.8138 96.3079 103.659 0.464677 -7.301
738345 1 69.1758 90.7773 105.433 0.0711772 -7.48651
245949 1 70.9248 92.835 105.419 0.0489893 -7.86626
738504 1 67.6461 96.2065 105.509 0.302679 -7.95852
233065 1 70.6105 96.1691 108.966 0.154065 -7.40071
259961 1 121.637 148.312 121.54 0.11696 -7.30008
266362 1 124.843 148.02 125.077 0.148997 -7.08904
285145 1 69.0178 134.248 134.559 0.346696 -6.24653
