ITEM: TIMESTEP
81000
ITEM: NUMBER OF ATOMS
33
ITEM: BOX BOUNDS pp pp pp
0 240
0 240
0 240
ITEM: ATOMS id type x y z c_myKE c_myPE
758428 1 79.9366 121.959 117.056 0.0864731 -6.48216
258754 1 97.9221 105.904 121.531 0.748992 -7.35622
770994 1 101.135 108.677 121.406 0.360992 -7.01121
764827 1 76.9287 121.582 120.156 0.375504 -6.95677
769961 1 123.634 72.1365 123.685 0.0721991 -6.32562
265075 1 101.045 105.763 124.622 0.229627 -7.48208
783475 1 105.456 100.878 126.6 0.0579174 -6.67294
803881 1 123.206 148.908 137.506 0.297404 -7.18385
828845 1 137.439 123.538 151.857 0.22747 -6.4717
861722 1 124.62 158.453 165.784 0.204101 -6.36821
862765 1 135.918 199.724 168.086 0.0905009 -6.61383
880285 1 133.997 130.856 177.44 0.114432 -6.70375
886684 1 131.18 131.228 180.965 0.18232 -6.26537
920216 1 169.332 191.726 194.948 0.327852 -6.28308
945010 1 150.022 159.67 207.634 0.0866811 -6.56342
143154 1 99.5 84.9288 64.2132 0.237236 -6.32406
219156 1 105.577 52.8559 100.897 0.275312 -7.28688
213567 1 141.839 86.7317 99.5468 0.0571613 -6.37318
240685 1 132.79 145.09 110.329 0.452113 -6.26502
245966 1 135.772 100.794 113.426 0.183756 -5.9466
271555 1 102.581 104.155 126.204 0.740665 -7.56856
271632 1 96.4106 110.162 125.948 0.0383402 -7.38631
783474 1 105.834 104.016 129.37 0.162709 -6.84162
783553 1 102.555 107.284 129.254 0.232622 -7.24955
291882 1 124.936 147.544 136.069 0.0223651 -6.7449
357245 1 134.692 201.501 169.944 0.228118 -7.43218
361727 1 140.964 123.082 172.912 0.511772 -6.1957
369178 1 175.878 166.262 173.847 0.253061 -7.31639
369258 1 176.229 169.277 173.683 0.148628 -7.04118
369259 1 179.111 169.28 174.14 0.271526 -7.53055
386755 1 102.741 100.822 185.408 0.135985 -6.24609
386835 1 102.777 103.671 185.643 0.04521 -7.16671
440692 1 154.831 209.388 211.136 0.257677 -6.32899
