ITEM: TIMESTEP
77000
ITEM: NUMBER OF ATOMS
30
ITEM: BOX BOUNDS pp pp pp
0 240
0 240
0 240
ITEM: ATOMS id type x y z c_myKE c_myPE
174915 1 99.3542 77.0547 78.8343 0.276848 -6.02466
694364 1 132.769 118.468 83.0686 0.124222 -7.22632
688043 1 129.972 121.721 81.8361 0.158918 -5.83884
188763 1 129.589 117.367 85.9478 0.347151 -6.53152
694445 1 133.616 121.585 86.4507 0.0337894 -6.41766
737790 1 89.8169 62.7169 105.317 0.179342 -5.81208
234287 1 134.147 143.598 105.78 0.0515614 -7.23751
739804 1 131.037 146.935 105.73 0.0470425 -7.71224
733563 1 127.84 150.13 105.903 0.0405017 -7.19658
739885 1 134.172 143.806 108.858 0.104077 -8.18483
739646 1 137.419 143.751 108.771 0.0392118 -7.35125
227804 1 130.903 146.896 108.663 0.187809 -8.07947
739883 1 131.108 150 108.78 0.441143 -8.18155
234126 1 134.307 140.56 112.119 0.105868 -7.63134
752604 1 131.071 143.793 111.916 0.101008 -7.373
246926 1 134.373 143.74 111.883 0.00875464 -8.48554
227963 1 129.771 148.664 110.333 0.347755 -6.62855
247005 1 134.454 140.729 115.091 0.0867864 -7.36473
778117 1 110.766 142.574 126.83 0.0961865 -7.12378
278923 1 124.264 140.505 131.096 0.0584952 -5.92749
861239 1 115.15 139.41 165.822 0.33616 -6.71454
163802 1 122.875 141.759 72.0408 0.01736 -6.24544
200356 1 105.762 70.7001 91.4825 0.139151 -6.81198
200437 1 109.14 73.9535 91.4447 0.134976 -6.46901
725954 1 99.3285 104.24 103.915 0.088383 -5.66563
227805 1 132.691 145.375 107.409 0.157108 -8.32204
240607 1 135.789 142.136 110.184 0.0870539 -7.97722
234285 1 132.643 145.347 110.375 0.203595 -8.19623
739963 1 128.085 150.359 108.851 0.179644 -6.8845
752444 1 132.617 142.129 113.557 0.196047 -8.07236
