ITEM: TIMESTEP
75229
ITEM: NUMBER OF ATOMS
40
ITEM: BOX BOUNDS pp pp pp
0 240
0 240
0 240
ITEM: ATOMS id type x y z
213729 1 144.75 93.75 99.75
214127 1 138.75 108.75 99.75
220831 1 90.75 120.75 102.75
233010 1 147.75 96.75 108.75
233485 1 132.75 114.75 108.75
239644 1 129.75 105.75 111.75
272023 1 66.75 120.75 126.75
272504 1 69.75 138.75 126.75
277483 1 126.75 84.75 129.75
277969 1 144.75 102.75 129.75
278027 1 78.75 105.75 129.75
278277 1 108.75 114.75 129.75
278661 1 60.75 129.75 129.75
279062 1 63.75 144.75 129.75
284525 1 132.75 108.75 132.75
285064 1 69.75 129.75 132.75
291541 1 60.75 132.75 135.75
328451 1 150.75 75.75 153.75
330360 1 117.75 147.75 153.75
334851 1 150.75 75.75 156.75
725961 1 122.25 104.25 101.25
764281 1 122.25 101.25 119.25
764677 1 110.25 116.25 119.25
770925 1 134.25 110.25 122.25
777860 1 59.25 131.25 125.25
777861 1 62.25 131.25 125.25
783241 1 122.25 92.25 128.25
783404 1 131.25 98.25 128.25
784582 1 65.25 143.25 128.25
790278 1 113.25 116.25 131.25
790822 1 65.25 137.25 131.25
790823 1 68.25 137.25 131.25
796124 1 131.25 95.25 134.25
802762 1 125.25 104.25 137.25
816038 1 113.25 122.25 143.25
816359 1 116.25 134.25 143.25
821957 1 110.25 104.25 146.25
834680 1 119.25 101.25 152.25
840612 1 155.25 83.25 155.25
841080 1 119.25 101.25 155.25
