ITEM: TIMESTEP
77265
ITEM: NUMBER OF ATOMS
40
ITEM: BOX BOUNDS pp pp pp
0 240
0 240
0 240
ITEM: ATOMS id type x y z
272189 1 84.75 126.75 126.75
278669 1 84.75 129.75 129.75
296990 1 87.75 96.75 138.75
297071 1 90.75 99.75 138.75
316356 1 105.75 102.75 147.75
322677 1 108.75 99.75 150.75
322757 1 108.75 102.75 150.75
322836 1 105.75 105.75 150.75
329315 1 102.75 108.75 153.75
329316 1 105.75 108.75 153.75
347715 1 102.75 78.75 162.75
361476 1 105.75 114.75 168.75
374668 1 81.75 129.75 174.75
386915 1 102.75 108.75 180.75
419783 1 66.75 141.75 195.75
706598 1 113.25 98.25 92.25
706677 1 110.25 101.25 92.25
784108 1 83.25 125.25 128.25
790588 1 83.25 128.25 131.25
797559 1 116.25 149.25 134.25
797638 1 113.25 152.25 134.25
827787 1 80.25 83.25 149.25
828276 1 107.25 101.25 149.25
828356 1 107.25 104.25 149.25
834756 1 107.25 104.25 152.25
834836 1 107.25 107.25 152.25
834837 1 110.25 107.25 152.25
841236 1 107.25 107.25 155.25
841315 1 104.25 110.25 155.25
841396 1 107.25 113.25 155.25
864928 1 143.25 35.25 167.25
866996 1 107.25 113.25 167.25
867077 1 110.25 116.25 167.25
867080 1 119.25 116.25 167.25
873476 1 107.25 116.25 170.25
880188 1 83.25 128.25 173.25
880269 1 86.25 131.25 173.25
886668 1 83.25 131.25 176.25
905950 1 89.25 134.25 185.25
912270 1 89.25 131.25 188.25
