ITEM: TIMESTEP
76243
ITEM: NUMBER OF ATOMS
44
ITEM: BOX BOUNDS pp pp pp
0 240
0 240
0 240
ITEM: ATOMS id type x y z
162998 1 111.75 111.75 75.75
175796 1 105.75 111.75 81.75
188358 1 111.75 102.75 87.75
195399 1 114.75 126.75 90.75
201797 1 108.75 126.75 93.75
208033 1 96.75 120.75 96.75
208358 1 111.75 132.75 96.75
233152 1 93.75 102.75 108.75
233800 1 117.75 126.75 108.75
240197 1 108.75 126.75 111.75
240275 1 102.75 129.75 111.75
240277 1 108.75 129.75 111.75
240992 1 93.75 156.75 111.75
246278 1 111.75 114.75 114.75
246435 1 102.75 120.75 114.75
246439 1 114.75 120.75 114.75
252116 1 105.75 93.75 117.75
252758 1 111.75 117.75 117.75
252838 1 111.75 120.75 117.75
252839 1 114.75 120.75 117.75
265957 1 108.75 132.75 123.75
266116 1 105.75 138.75 123.75
272436 1 105.75 135.75 126.75
284915 1 102.75 123.75 132.75
316833 1 96.75 120.75 147.75
681397 1 110.25 113.25 80.25
681629 1 86.25 122.25 80.25
713238 1 113.25 107.25 95.25
720192 1 95.25 128.25 98.25
726197 1 110.25 113.25 101.25
738917 1 110.25 110.25 107.25
751953 1 98.25 119.25 113.25
751958 1 113.25 119.25 113.25
752033 1 98.25 122.25 113.25
758356 1 107.25 119.25 116.25
758357 1 110.25 119.25 116.25
764596 1 107.25 113.25 119.25
765316 1 107.25 140.25 119.25
770915 1 104.25 110.25 122.25
777315 1 104.25 110.25 125.25
777552 1 95.25 119.25 125.25
778039 1 116.25 137.25 125.25
790598 1 113.25 128.25 131.25
809556 1 107.25 119.25 140.25
