ITEM: TIMESTEP
81000
ITEM: NUMBER OF ATOMS
25
ITEM: BOX BOUNDS pp pp pp
0 240
0 240
0 240
ITEM: ATOMS id type x y z
220514 1 99.75 108.75 102.75
220596 1 105.75 111.75 102.75
226996 1 105.75 111.75 105.75
259394 1 99.75 126.75 120.75
265965 1 132.75 132.75 123.75
278755 1 102.75 132.75 129.75
304761 1 120.75 147.75 141.75
304838 1 111.75 150.75 141.75
312032 1 93.75 180.75 144.75
330514 1 99.75 153.75 153.75
356439 1 114.75 165.75 165.75
719393 1 98.25 98.25 98.25
732518 1 113.25 110.25 104.25
777645 1 134.25 122.25 125.25
784838 1 113.25 152.25 128.25
791079 1 116.25 146.25 131.25
803644 1 131.25 137.25 137.25
803803 1 128.25 143.25 137.25
804033 1 98.25 152.25 137.25
816756 1 107.25 149.25 143.25
817317 1 110.25 170.25 143.25
829402 1 125.25 143.25 149.25
829556 1 107.25 149.25 149.25
835874 1 101.25 146.25 152.25
848757 1 110.25 149.25 158.25
