ITEM: TIMESTEP
77000
ITEM: NUMBER OF ATOMS
53
ITEM: BOX BOUNDS pp pp pp
0 240
0 240
0 240
ITEM: ATOMS id type x y z
226593 1 96.75 96.75 105.75
251648 1 141.75 75.75 117.75
251954 1 99.75 87.75 117.75
252048 1 141.75 90.75 117.75
252598 1 111.75 111.75 117.75
264912 1 93.75 93.75 123.75
264999 1 114.75 96.75 123.75
265005 1 132.75 96.75 123.75
265326 1 135.75 108.75 123.75
271161 1 120.75 87.75 126.75
271162 1 123.75 87.75 126.75
271242 1 123.75 90.75 126.75
277718 1 111.75 93.75 129.75
277803 1 126.75 96.75 129.75
277883 1 126.75 99.75 129.75
278046 1 135.75 105.75 129.75
278119 1 114.75 108.75 129.75
284047 1 138.75 90.75 132.75
284127 1 138.75 93.75 132.75
284283 1 126.75 99.75 132.75
284286 1 135.75 99.75 132.75
290525 1 132.75 93.75 135.75
291080 1 117.75 114.75 135.75
297078 1 111.75 99.75 138.75
738514 1 101.25 95.25 107.25
752271 1 92.25 131.25 113.25
752529 1 146.25 140.25 113.25
763803 1 128.25 83.25 119.25
770681 1 122.25 101.25 122.25
770682 1 125.25 101.25 122.25
776761 1 122.25 89.25 125.25
776924 1 131.25 95.25 125.25
776997 1 110.25 98.25 125.25
777165 1 134.25 104.25 125.25
783154 1 101.25 89.25 128.25
783317 1 110.25 95.25 128.25
783402 1 125.25 98.25 128.25
783404 1 131.25 98.25 128.25
783485 1 134.25 101.25 128.25
783487 1 140.25 101.25 128.25
783801 1 122.25 113.25 128.25
783884 1 131.25 116.25 128.25
789639 1 116.25 92.25 131.25
789645 1 134.25 92.25 131.25
789804 1 131.25 98.25 131.25
789960 1 119.25 104.25 131.25
796201 1 122.25 98.25 134.25
802519 1 116.25 95.25 137.25
808921 1 122.25 95.25 140.25
808996 1 107.25 98.25 140.25
809003 1 128.25 98.25 140.25
822041 1 122.25 107.25 146.25
822200 1 119.25 113.25 146.25
