ITEM: TIMESTEP
79000
ITEM: NUMBER OF ATOMS
44
ITEM: BOX BOUNDS pp pp pp
0 240
0 240
0 240
ITEM: ATOMS id type x y z c_myKE c_myPE
617252 1 158.35 107.385 45.0133 0.259771 -6.36472
680115 1 104.134 60.9654 76.6509 0.0138556 -6.71096
745162 1 126.937 104.198 108.724 0.0123724 -7.56834
745083 1 126.844 100.73 112.028 0.187091 -6.73824
776848 1 143.513 88.4237 126.586 0.0410796 -6.98909
777875 1 104.481 132.813 126.665 0.0595117 -6.54261
277387 1 75.2649 82.1827 129.353 0.164725 -7.00467
789646 1 139.274 89.4806 131.318 0.0104564 -5.91276
784195 1 104.362 129.668 129.943 0.249833 -6.79986
795632 1 92.6784 73.8059 136.137 0.0109116 -6.45618
309968 1 145.855 101.498 147.121 0.372256 -7.25235
821887 1 142.58 100.762 150.244 0.221964 -6.76631
828366 1 139.224 104.13 150.058 0.390626 -7.5808
828368 1 145.536 104.072 150.148 0.0939469 -6.95267
834845 1 135.976 107.704 153.251 0.212634 -7.76226
834846 1 139.096 107.472 153.124 0.109863 -7.31619
841410 1 151.81 111.719 156.369 0.218347 -6.83448
924132 1 161.407 89.5729 194.884 0.0442975 -8.06601
923973 1 161.768 86.3231 197.898 0.564946 -7.86371
936933 1 159.798 88.1273 196.547 0.0917992 -7.58348
412054 1 164.71 89.5151 198.009 0.20438 -7.87052
917654 1 161.439 92.6084 198.101 0.234354 -6.98017
930547 1 206.119 92.8437 203.67 0.125079 -6.2416
444528 1 145.641 110.659 211.103 0.128958 -6.70001
961976 1 170.94 70.309 217.229 0.0709773 -6.11372
962136 1 172.573 78.4365 219.063 0.185418 -6.35466
226287 1 141.259 83.4949 103.878 0.0377347 -6.84143
225232 1 91.0839 42.1814 105.702 0.407627 -6.5696
232607 1 140.971 80.3306 107.02 0.0620337 -7.19828
738682 1 125.14 102.791 107.089 0.0113505 -7.05614
233242 1 124.584 105.837 107.173 0.0851155 -6.63345
265719 1 115.525 124.781 125.669 0.0627112 -6.73102
278757 1 108.977 134.362 131.436 0.0587032 -7.37865
310847 1 140.606 135.504 145.171 0.12072 -6.30919
322846 1 137.519 105.807 151.777 0.0961209 -7.82602
322847 1 140.495 105.756 151.605 0.441244 -7.69458
329332 1 156.619 107.023 155.009 0.0561246 -6.49162
329326 1 137.818 108.952 154.983 0.0334878 -7.35046
359970 1 148.502 52.8284 171.31 0.220397 -6.23757
917653 1 163.078 88.2395 196.375 0.414481 -7.96875
418453 1 163.253 88.0222 199.715 0.250246 -7.9716
431168 1 144.274 86.772 208.947 0.596106 -7.00821
438067 1 204.926 103.999 209.237 0.131066 -6.70732
450848 1 140.857 109.475 215.704 0.0660011 -6.85998
