ITEM: TIMESTEP
79286
ITEM: NUMBER OF ATOMS
44
ITEM: BOX BOUNDS pp pp pp
0 240
0 240
0 240
ITEM: ATOMS id type x y z c_myKE c_myPE
617252 1 158.444 107.398 44.8808 0 -6.25434
680115 1 104.212 60.7924 76.7705 0 -6.25489
738207 1 142.601 81.711 105.637 0 -6.54347
745161 1 123.465 104.295 108.786 0 -7.04072
745162 1 126.579 104.086 108.638 0 -7.51473
745083 1 126.656 100.9 112.001 0 -6.60995
776848 1 143.809 88.373 126.492 0 -6.55809
277387 1 75.4975 81.8731 129.755 0 -6.25462
789646 1 139.219 89.3802 131.087 0 -6.55706
795632 1 92.6925 73.5466 136.137 0 -6.25363
309968 1 145.725 101.071 146.881 0 -7.19692
821887 1 142.508 101.281 150.122 0 -7.13532
828368 1 145.76 104.129 150.024 0 -7.28294
828446 1 138.977 107.386 150.171 0 -7.50779
828447 1 142.728 107.131 150.293 0 -7.59548
834845 1 136.093 107.419 153.378 0 -7.25476
834846 1 139.196 107.672 153.202 0 -8.10328
841331 1 155.26 108.663 156.508 0 -6.83312
841410 1 152.002 111.93 156.405 0 -6.53973
924132 1 161.51 89.6269 194.835 0 -7.62855
923973 1 161.511 86.3471 198.114 0 -7.63607
424933 1 158.496 89.4791 197.968 0 -7.47849
405733 1 161.602 89.5313 198.02 0 -8.07021
412054 1 164.789 89.6251 198.112 0 -7.63176
917654 1 161.661 92.6345 197.962 0 -7.47955
418453 1 163.016 88.1192 199.887 0 -7.59874
930547 1 206.301 92.6871 203.109 0 -6.25194
943168 1 145.584 88.3925 207.648 0 -6.31261
444528 1 145.651 110.636 210.785 0 -6.82627
444607 1 142.395 110.712 214.04 0 -6.52401
961976 1 171.285 70.4366 217.188 0 -6.27425
962136 1 172.367 78.6219 219 0 -6.27419
226287 1 141.016 83.484 103.869 0 -6.82918
225232 1 91.1001 42.0018 105.826 0 -6.25462
738682 1 124.834 102.572 107.029 0 -7.09152
265719 1 115.374 124.94 126.225 0 -6.25933
272356 1 105.698 134.594 128.073 0 -6.57497
278676 1 105.696 131.225 131.443 0 -6.57243
278757 1 109.007 134.549 131.398 0 -7.52462
310847 1 140.903 135.784 145.339 0 -6.25803
316447 1 140.76 105.633 148.551 0 -7.4915
329326 1 137.672 109.167 154.811 0 -7.54085
359970 1 148.523 52.8092 170.87 0 -6.25495
438067 1 204.697 103.859 209.15 0 -6.25879
