ITEM: TIMESTEP
79000
ITEM: NUMBER OF ATOMS
44
ITEM: BOX BOUNDS pp pp pp
0 240
0 240
0 240
ITEM: ATOMS id type x y z
105333 1 156.75 108.75 48.75
168116 1 105.75 63.75 78.75
233243 1 126.75 105.75 108.75
239563 1 126.75 102.75 111.75
271248 1 141.75 90.75 126.75
272356 1 105.75 132.75 126.75
277467 1 78.75 84.75 129.75
277647 1 138.75 90.75 129.75
278676 1 105.75 129.75 129.75
290032 1 93.75 75.75 135.75
309969 1 144.75 102.75 144.75
316368 1 141.75 102.75 147.75
316447 1 138.75 105.75 147.75
316449 1 144.75 105.75 147.75
322926 1 135.75 108.75 150.75
322927 1 138.75 108.75 150.75
329411 1 150.75 111.75 153.75
405654 1 159.75 90.75 189.75
411974 1 159.75 87.75 192.75
412053 1 156.75 90.75 192.75
412055 1 162.75 90.75 192.75
412134 1 159.75 93.75 192.75
424948 1 201.75 93.75 198.75
438209 1 144.75 111.75 204.75
449977 1 168.75 72.75 210.75
456617 1 168.75 81.75 213.75
731887 1 140.25 86.25 104.25
737231 1 92.25 47.25 107.25
738207 1 140.25 83.25 107.25
738762 1 125.25 104.25 107.25
738842 1 125.25 107.25 107.25
777719 1 116.25 125.25 125.25
790757 1 110.25 134.25 131.25
816367 1 140.25 134.25 143.25
828446 1 137.25 107.25 149.25
828447 1 140.25 107.25 149.25
834852 1 155.25 107.25 152.25
834926 1 137.25 110.25 152.25
865489 1 146.25 56.25 167.25
917574 1 161.25 89.25 191.25
923974 1 161.25 89.25 194.25
943168 1 143.25 89.25 203.25
943587 1 200.25 104.25 203.25
956527 1 140.25 110.25 209.25
