ITEM: TIMESTEP
76196
ITEM: NUMBER OF ATOMS
31
ITEM: BOX BOUNDS pp pp pp
0 240
0 240
0 240
ITEM: ATOMS id type x y z
201711 1 90.75 123.75 93.75
233237 1 108.75 105.75 108.75
233317 1 108.75 108.75 108.75
239717 1 108.75 108.75 111.75
239718 1 111.75 108.75 111.75
239797 1 108.75 111.75 111.75
245249 1 144.75 75.75 114.75
246118 1 111.75 108.75 114.75
246196 1 105.75 111.75 114.75
246197 1 108.75 111.75 114.75
246277 1 108.75 114.75 114.75
252518 1 111.75 108.75 117.75
252598 1 111.75 111.75 117.75
258999 1 114.75 111.75 120.75
284101 1 60.75 93.75 132.75
322853 1 156.75 105.75 150.75
743953 1 98.25 59.25 110.25
745237 1 110.25 107.25 110.25
745316 1 107.25 110.25 110.25
751717 1 110.25 110.25 113.25
758038 1 113.25 107.25 116.25
758117 1 110.25 110.25 116.25
758197 1 110.25 113.25 116.25
764518 1 113.25 110.25 119.25
764598 1 113.25 113.25 119.25
764678 1 113.25 116.25 119.25
770998 1 113.25 113.25 122.25
771079 1 116.25 116.25 122.25
803473 1 98.25 131.25 137.25
808852 1 155.25 92.25 140.25
809872 1 95.25 131.25 140.25
