ITEM: TIMESTEP
76000
ITEM: NUMBER OF ATOMS
31
ITEM: BOX BOUNDS pp pp pp
0 240
0 240
0 240
ITEM: ATOMS id type x y z
226673 1 96.75 99.75 105.75
245492 1 153.75 84.75 114.75
258850 1 147.75 105.75 120.75
271408 1 141.75 96.75 126.75
271802 1 123.75 111.75 126.75
277967 1 138.75 102.75 129.75
278047 1 138.75 105.75 129.75
278202 1 123.75 111.75 129.75
278529 1 144.75 123.75 129.75
284127 1 138.75 93.75 132.75
296927 1 138.75 93.75 138.75
297481 1 120.75 114.75 138.75
322686 1 135.75 99.75 150.75
713403 1 128.25 113.25 95.25
725720 1 119.25 95.25 101.25
732044 1 131.25 92.25 104.25
739001 1 122.25 113.25 107.25
744836 1 107.25 92.25 110.25
751409 1 146.25 98.25 113.25
757641 1 122.25 92.25 116.25
757724 1 131.25 95.25 116.25
764128 1 143.25 95.25 119.25
764208 1 143.25 98.25 119.25
770843 1 128.25 107.25 122.25
783568 1 143.25 104.25 128.25
783721 1 122.25 110.25 128.25
783727 1 140.25 110.25 128.25
809484 1 131.25 116.25 140.25
822202 1 125.25 113.25 146.25
822363 1 128.25 119.25 146.25
822603 1 128.25 128.25 146.25
