ITEM: TIMESTEP
78000
ITEM: NUMBER OF ATOMS
30
ITEM: BOX BOUNDS pp pp pp
0 240
0 240
0 240
ITEM: ATOMS id type x y z
252272 1 93.75 99.75 117.75
265153 1 96.75 102.75 123.75
284833 1 96.75 120.75 132.75
291216 1 45.75 120.75 135.75
297939 1 54.75 132.75 138.75
304110 1 87.75 123.75 141.75
316431 1 90.75 105.75 147.75
316833 1 96.75 120.75 147.75
316836 1 105.75 120.75 147.75
316992 1 93.75 126.75 147.75
329711 1 90.75 123.75 153.75
329955 1 102.75 132.75 153.75
751872 1 95.25 116.25 113.25
758354 1 101.25 119.25 116.25
771313 1 98.25 125.25 122.25
777713 1 98.25 125.25 125.25
790819 1 56.25 137.25 131.25
796594 1 101.25 113.25 134.25
796670 1 89.25 116.25 134.25
796833 1 98.25 122.25 134.25
802754 1 101.25 104.25 137.25
802834 1 101.25 107.25 137.25
803235 1 104.25 122.25 137.25
803386 1 77.25 128.25 137.25
809475 1 104.25 116.25 140.25
809873 1 98.25 131.25 140.25
816115 1 104.25 125.25 143.25
828513 1 98.25 110.25 149.25
854359 1 116.25 119.25 161.25
860906 1 77.25 125.25 164.25
