ITEM: TIMESTEP
80153
ITEM: NUMBER OF ATOMS
33
ITEM: BOX BOUNDS pp pp pp
0 240
0 240
0 240
ITEM: ATOMS id type x y z
221333 1 156.75 138.75 102.75
240372 1 153.75 132.75 111.75
246193 1 96.75 111.75 114.75
246273 1 96.75 114.75 114.75
247013 1 156.75 141.75 114.75
252514 1 99.75 108.75 117.75
258913 1 96.75 108.75 120.75
259498 1 171.75 129.75 120.75
264992 1 93.75 96.75 123.75
265070 1 87.75 99.75 123.75
265152 1 93.75 102.75 123.75
272373 1 156.75 132.75 126.75
278931 1 150.75 138.75 129.75
285489 1 144.75 144.75 132.75
290989 1 84.75 111.75 135.75
297630 1 87.75 120.75 138.75
303790 1 87.75 111.75 141.75
381396 1 105.75 141.75 177.75
394119 1 114.75 138.75 183.75
721010 1 149.25 158.25 98.25
733251 1 152.25 137.25 104.25
739567 1 140.25 134.25 107.25
759094 1 161.25 146.25 116.25
770672 1 95.25 101.25 122.25
770911 1 92.25 110.25 122.25
771410 1 149.25 128.25 122.25
771490 1 149.25 131.25 122.25
777311 1 92.25 110.25 125.25
778129 1 146.25 140.25 125.25
783470 1 89.25 101.25 128.25
790692 1 155.25 131.25 131.25
886999 1 116.25 143.25 176.25
925485 1 134.25 146.25 194.25
