ITEM: TIMESTEP
75000
ITEM: NUMBER OF ATOMS
33
ITEM: BOX BOUNDS pp pp pp
0 240
0 240
0 240
ITEM: ATOMS id type x y z
97714 1 99.75 63.75 45.75
188686 1 135.75 114.75 87.75
194205 1 132.75 81.75 90.75
194286 1 135.75 84.75 90.75
200606 1 135.75 81.75 93.75
200687 1 138.75 84.75 93.75
227399 1 114.75 126.75 105.75
233799 1 114.75 126.75 108.75
258200 1 117.75 81.75 120.75
258258 1 51.75 84.75 120.75
264599 1 114.75 81.75 123.75
264760 1 117.75 87.75 123.75
265616 1 45.75 120.75 123.75
270613 1 156.75 66.75 126.75
271000 1 117.75 81.75 126.75
277641 1 120.75 90.75 129.75
309470 1 87.75 84.75 144.75
724858 1 173.25 62.25 101.25
745719 1 116.25 125.25 110.25
770278 1 113.25 86.25 122.25
770279 1 116.25 86.25 122.25
776599 1 116.25 83.25 125.25
776600 1 119.25 83.25 125.25
776679 1 116.25 86.25 125.25
776680 1 119.25 86.25 125.25
776681 1 122.25 86.25 125.25
776760 1 119.25 89.25 125.25
777620 1 59.25 122.25 125.25
777701 1 62.25 125.25 125.25
783080 1 119.25 86.25 128.25
796843 1 128.25 122.25 134.25
803242 1 125.25 122.25 137.25
868501 1 62.25 170.25 167.25
