ITEM: TIMESTEP
78156
ITEM: NUMBER OF ATOMS
26
ITEM: BOX BOUNDS pp pp pp
0 240
0 240
0 240
ITEM: ATOMS id type x y z
61743 1 186.75 153.75 27.75
79237 1 108.75 90.75 36.75
144680 1 117.75 144.75 66.75
182845 1 132.75 135.75 84.75
215961 1 120.75 177.75 99.75
221084 1 129.75 129.75 102.75
227485 1 132.75 129.75 105.75
227564 1 129.75 132.75 105.75
228117 1 108.75 153.75 105.75
228838 1 111.75 180.75 105.75
239341 1 180.75 93.75 111.75
239481 1 120.75 99.75 111.75
239560 1 117.75 102.75 111.75
245880 1 117.75 99.75 114.75
252526 1 135.75 108.75 117.75
258927 1 138.75 108.75 120.75
285323 1 126.75 138.75 132.75
649475 1 104.25 116.25 65.25
680618 1 173.25 83.25 80.25
688366 1 137.25 134.25 83.25
693149 1 86.25 74.25 86.25
733004 1 131.25 128.25 104.25
738602 1 125.25 98.25 107.25
740037 1 110.25 152.25 107.25
790843 1 128.25 137.25 131.25
790923 1 128.25 140.25 131.25
