ITEM: TIMESTEP
78316
ITEM: NUMBER OF ATOMS
43
ITEM: BOX BOUNDS pp pp pp
0 240
0 240
0 240
ITEM: ATOMS id type x y z
201156 1 105.75 102.75 93.75
226041 1 120.75 75.75 105.75
232845 1 132.75 90.75 108.75
233081 1 120.75 99.75 108.75
239161 1 120.75 87.75 111.75
239327 1 138.75 93.75 111.75
239401 1 120.75 96.75 111.75
239481 1 120.75 99.75 111.75
245881 1 120.75 99.75 114.75
245886 1 135.75 99.75 114.75
245961 1 120.75 102.75 114.75
252127 1 138.75 93.75 117.75
252203 1 126.75 96.75 117.75
252283 1 126.75 99.75 117.75
258442 1 123.75 90.75 120.75
258445 1 132.75 90.75 120.75
259402 1 123.75 126.75 120.75
259418 1 171.75 126.75 120.75
264670 1 87.75 84.75 123.75
265001 1 120.75 96.75 123.75
270923 1 126.75 78.75 126.75
284607 1 138.75 111.75 132.75
726210 1 149.25 113.25 101.25
744838 1 113.25 92.25 110.25
744921 1 122.25 95.25 110.25
744999 1 116.25 98.25 110.25
745085 1 134.25 101.25 110.25
745161 1 122.25 104.25 110.25
746293 1 158.25 146.25 110.25
751479 1 116.25 101.25 113.25
751483 1 128.25 101.25 113.25
757560 1 119.25 89.25 116.25
763960 1 119.25 89.25 119.25
764204 1 131.25 98.25 119.25
764611 1 152.25 113.25 119.25
770121 1 122.25 80.25 122.25
776602 1 125.25 83.25 125.25
776759 1 116.25 89.25 125.25
777005 1 134.25 98.25 125.25
802681 1 122.25 101.25 137.25
802838 1 113.25 107.25 137.25
803083 1 128.25 116.25 137.25
827952 1 95.25 89.25 149.25
