ITEM: TIMESTEP
77000
ITEM: NUMBER OF ATOMS
38
ITEM: BOX BOUNDS pp pp pp
0 240
0 240
0 240
ITEM: ATOMS id type x y z
184521 1 120.75 198.75 84.75
209643 1 126.75 180.75 96.75
209878 1 111.75 189.75 96.75
226677 1 108.75 99.75 105.75
239398 1 111.75 96.75 111.75
252761 1 120.75 117.75 117.75
253879 1 114.75 159.75 117.75
271481 1 120.75 99.75 126.75
278276 1 105.75 114.75 129.75
296923 1 126.75 93.75 138.75
322918 1 111.75 108.75 150.75
342441 1 120.75 120.75 159.75
355311 1 90.75 123.75 165.75
361472 1 93.75 114.75 168.75
374195 1 102.75 111.75 174.75
695402 1 125.25 158.25 86.25
728366 1 137.25 194.25 101.25
734361 1 122.25 179.25 104.25
734679 1 116.25 191.25 104.25
745076 1 107.25 101.25 110.25
747075 1 104.25 176.25 110.25
751635 1 104.25 107.25 113.25
751640 1 119.25 107.25 113.25
757719 1 116.25 95.25 116.25
764360 1 119.25 104.25 119.25
764679 1 116.25 116.25 119.25
772677 1 110.25 176.25 122.25
776999 1 116.25 98.25 125.25
777081 1 122.25 101.25 125.25
777239 1 116.25 107.25 125.25
777240 1 119.25 107.25 125.25
834994 1 101.25 113.25 152.25
860836 1 107.25 122.25 164.25
867393 1 98.25 128.25 167.25
873314 1 101.25 110.25 170.25
873318 1 113.25 110.25 170.25
873471 1 92.25 116.25 170.25
873713 1 98.25 125.25 170.25
