ITEM: TIMESTEP
79000
ITEM: NUMBER OF ATOMS
30
ITEM: BOX BOUNDS pp pp pp
0 240
0 240
0 240
ITEM: ATOMS id type x y z
233239 1 114.75 105.75 108.75
233319 1 114.75 108.75 108.75
233640 1 117.75 120.75 108.75
260380 1 177.75 162.75 120.75
266457 1 168.75 150.75 123.75
279579 1 174.75 162.75 129.75
284598 1 111.75 111.75 132.75
315637 1 108.75 75.75 147.75
734059 1 176.25 167.25 104.25
738679 1 116.25 101.25 107.25
739157 1 110.25 119.25 107.25
745239 1 116.25 107.25 110.25
745478 1 113.25 116.25 110.25
746376 1 167.25 149.25 110.25
752037 1 110.25 122.25 113.25
758112 1 95.25 110.25 116.25
758446 1 137.25 122.25 116.25
764756 1 107.25 119.25 119.25
765088 1 143.25 131.25 119.25
771078 1 113.25 116.25 122.25
771156 1 107.25 119.25 122.25
777402 1 125.25 113.25 125.25
777643 1 128.25 122.25 125.25
778857 1 170.25 167.25 125.25
784122 1 125.25 125.25 128.25
809563 1 128.25 119.25 140.25
814996 1 107.25 83.25 143.25
816203 1 128.25 128.25 143.25
834121 1 122.25 80.25 152.25
834526 1 137.25 95.25 152.25
