ITEM: TIMESTEP
97000
ITEM: NUMBER OF ATOMS
67
ITEM: BOX BOUNDS pp pp pp
0 240
0 240
0 240
ITEM: ATOMS id type x y z
188851 1 150.75 120.75 87.75
195175 1 162.75 117.75 90.75
197278 1 231.75 195.75 90.75
203677 1 228.75 195.75 93.75
203678 1 231.75 195.75 93.75
207393 1 96.75 96.75 96.75
208129 1 144.75 123.75 96.75
210072 1 213.75 195.75 96.75
210077 1 228.75 195.75 96.75
210078 1 231.75 195.75 96.75
210157 1 228.75 198.75 96.75
210158 1 231.75 198.75 96.75
210238 1 231.75 201.75 96.75
210313 1 216.75 204.75 96.75
214531 1 150.75 123.75 99.75
216238 1 231.75 186.75 99.75
216478 1 231.75 195.75 99.75
216555 1 222.75 198.75 99.75
216635 1 222.75 201.75 99.75
216639 1 234.75 201.75 99.75
216719 1 234.75 204.75 99.75
220435 1 102.75 105.75 102.75
220436 1 105.75 105.75 102.75
227411 1 150.75 126.75 105.75
229196 1 225.75 192.75 105.75
229676 1 225.75 210.75 105.75
677679 1 236.25 212.25 77.25
683919 1 236.25 206.25 80.25
696316 1 227.25 191.25 86.25
701174 1 161.25 134.25 89.25
702716 1 227.25 191.25 89.25
702877 1 230.25 197.25 89.25
702956 1 227.25 200.25 89.25
703197 1 230.25 209.25 89.25
708956 1 227.25 185.25 92.25
709191 1 212.25 194.25 92.25
709277 1 230.25 197.25 92.25
709278 1 233.25 197.25 92.25
709351 1 212.25 200.25 92.25
709516 1 227.25 206.25 92.25
713072 1 95.25 101.25 95.25
715518 1 233.25 191.25 95.25
715519 1 236.25 191.25 95.25
715596 1 227.25 194.25 95.25
715676 1 227.25 197.25 95.25
715677 1 230.25 197.25 95.25
715678 1 233.25 197.25 95.25
715757 1 230.25 200.25 95.25
721995 1 224.25 194.25 98.25
721998 1 233.25 194.25 98.25
722074 1 221.25 197.25 98.25
722075 1 224.25 197.25 98.25
722077 1 230.25 197.25 98.25
722078 1 233.25 197.25 98.25
722155 1 224.25 200.25 98.25
722158 1 233.25 200.25 98.25
722238 1 233.25 203.25 98.25
725955 1 104.25 104.25 101.25
726037 1 110.25 107.25 101.25
726371 1 152.25 119.25 101.25
728471 1 212.25 197.25 101.25
728555 1 224.25 200.25 101.25
728559 1 236.25 200.25 101.25
732851 1 152.25 122.25 104.25
732853 1 158.25 122.25 104.25
738834 1 101.25 107.25 107.25
741433 1 218.25 203.25 107.25
