ITEM: TIMESTEP
76278
ITEM: NUMBER OF ATOMS
35
ITEM: BOX BOUNDS pp pp pp
0 240
0 240
0 240
ITEM: ATOMS id type x y z
207314 1 99.75 93.75 96.75
220037 1 108.75 90.75 102.75
226854 1 159.75 105.75 105.75
271234 1 99.75 90.75 126.75
279549 1 84.75 162.75 129.75
283967 1 138.75 87.75 132.75
285065 1 72.75 129.75 132.75
285390 1 87.75 141.75 132.75
290993 1 96.75 111.75 135.75
310272 1 93.75 114.75 144.75
336047 1 138.75 120.75 156.75
355244 1 129.75 120.75 165.75
719315 1 104.25 95.25 98.25
732037 1 110.25 92.25 104.25
732690 1 149.25 116.25 104.25
751811 1 152.25 113.25 113.25
758124 1 131.25 110.25 116.25
758138 1 173.25 110.25 116.25
758373 1 158.25 119.25 116.25
764688 1 143.25 116.25 119.25
771163 1 128.25 119.25 122.25
772349 1 86.25 164.25 122.25
776677 1 110.25 86.25 125.25
777152 1 95.25 104.25 125.25
778749 1 86.25 164.25 125.25
783402 1 125.25 98.25 128.25
803073 1 98.25 116.25 137.25
803635 1 104.25 137.25 137.25
822756 1 107.25 134.25 146.25
823148 1 83.25 149.25 146.25
828598 1 113.25 113.25 149.25
828995 1 104.25 128.25 149.25
841889 1 146.25 131.25 155.25
860684 1 131.25 116.25 164.25
866767 1 140.25 104.25 167.25
