ITEM: TIMESTEP
79135
ITEM: NUMBER OF ATOMS
30
ITEM: BOX BOUNDS pp pp pp
0 240
0 240
0 240
ITEM: ATOMS id type x y z
85981 1 180.75 102.75 39.75
105819 1 174.75 126.75 48.75
125085 1 132.75 129.75 57.75
151900 1 177.75 174.75 69.75
207792 1 93.75 111.75 96.75
239341 1 180.75 93.75 111.75
245821 1 180.75 96.75 114.75
336764 1 129.75 147.75 156.75
343244 1 129.75 150.75 159.75
361873 1 96.75 129.75 168.75
567089 1 146.25 146.25 26.25
605336 1 167.25 140.25 44.25
611339 1 176.25 125.25 47.25
611735 1 164.25 140.25 47.25
637005 1 134.25 128.25 59.25
657274 1 221.25 167.25 68.25
661313 1 98.25 80.25 71.25
676028 1 83.25 152.25 77.25
682051 1 152.25 137.25 80.25
682132 1 155.25 140.25 80.25
682182 1 65.25 143.25 80.25
713005 1 134.25 98.25 95.25
714067 1 200.25 137.25 95.25
745009 1 146.25 98.25 110.25
791009 1 146.25 143.25 131.25
791088 1 143.25 146.25 131.25
795412 1 155.25 68.25 134.25
797234 1 101.25 137.25 134.25
797489 1 146.25 146.25 134.25
801732 1 155.25 65.25 137.25
