ITEM: TIMESTEP
79000
ITEM: NUMBER OF ATOMS
30
ITEM: BOX BOUNDS pp pp pp
0 240
0 240
0 240
ITEM: ATOMS id type x y z c_myKE c_myPE
85982 1 185.356 100.884 34.0217 0.0351151 -6.85592
637004 1 133.053 129.754 54.4299 0.195332 -7.46563
643324 1 133.034 126.951 57.6743 0.105906 -6.4506
151899 1 181.838 177.815 65.9682 0.173399 -5.91882
176452 1 156.687 140.629 78.4625 0.176694 -7.17745
719792 1 92.7245 111.727 96.083 0.225831 -6.31792
751340 1 183.895 92.6805 111.947 0.339833 -7.00849
757820 1 184.134 95.8572 115.208 0.0148083 -6.73761
848763 1 129.884 150.132 159.772 0.363412 -6.80466
848764 1 131.066 151.741 161.598 0.0268496 -7.02246
61490 1 148.451 147.606 20.877 0.374115 -6.41547
99736 1 169.871 140.683 40.0258 0.0225877 -6.31771
105740 1 179.251 124.836 41.8373 0.160165 -6.81642
618134 1 166.304 140.935 43.1588 0.0829772 -6.56561
105820 1 179.091 128.132 45.2258 0.186481 -7.22365
657194 1 228.532 169.479 65.5651 0.054171 -6.27409
155794 1 97.7296 78.4686 68.7463 0.147109 -6.83706
164028 1 80.8373 153.488 73.9289 0.0393913 -5.48872
170132 1 154.964 138.73 77.3337 0.0944292 -6.90085
176663 1 62.5493 145.253 78.6741 0.0692111 -6.42977
713085 1 135.632 96.4174 94.0752 0.0554026 -6.03586
707667 1 206.17 139.141 93.1966 0.10461 -5.94091
239409 1 148.272 96.3573 110.184 0.139577 -6.72092
279089 1 147.186 145.413 131.116 0.424783 -6.63944
279168 1 144.076 148.384 131.093 0.178747 -6.71625
283492 1 156.95 65.4716 134.275 0.128055 -7.1553
285315 1 100.885 138.985 134.412 0.0758713 -5.81545
291890 1 148.716 147.222 135.741 0.180571 -6.26941
289812 1 156.784 62.3079 137.739 0.186807 -7.10012
361873 1 94.6218 131.271 172.673 0.128196 -7.16947
