ITEM: TIMESTEP
79000
ITEM: NUMBER OF ATOMS
30
ITEM: BOX BOUNDS pp pp pp
0 240
0 240
0 240
ITEM: ATOMS id type x y z
106458 1 171.75 150.75 48.75
119183 1 186.75 147.75 54.75
125582 1 183.75 147.75 57.75
132622 1 183.75 171.75 60.75
145425 1 192.75 171.75 66.75
200757 1 108.75 87.75 93.75
213875 1 102.75 99.75 99.75
214198 1 111.75 111.75 99.75
233160 1 117.75 102.75 108.75
233317 1 108.75 108.75 108.75
233479 1 114.75 114.75 108.75
239960 1 117.75 117.75 111.75
245896 1 165.75 99.75 114.75
246360 1 117.75 117.75 114.75
252760 1 117.75 117.75 117.75
252762 1 123.75 117.75 117.75
311241 1 120.75 150.75 144.75
324042 1 123.75 150.75 150.75
618704 1 191.25 161.25 50.25
651022 1 185.25 173.25 65.25
651183 1 188.25 179.25 65.25
657422 1 185.25 173.25 68.25
719560 1 119.25 104.25 98.25
725959 1 116.25 104.25 101.25
726120 1 119.25 110.25 101.25
732440 1 119.25 107.25 104.25
738997 1 110.25 113.25 107.25
764927 1 140.25 125.25 119.25
771162 1 125.25 119.25 122.25
777261 1 182.25 107.25 125.25
