ITEM: TIMESTEP
78327
ITEM: NUMBER OF ATOMS
60
ITEM: BOX BOUNDS pp pp pp
0 240
0 240
0 240
ITEM: ATOMS id type x y z
194692 1 153.75 99.75 90.75
201091 1 150.75 99.75 93.75
201172 1 153.75 102.75 93.75
245175 1 162.75 72.75 114.75
252619 1 174.75 111.75 117.75
258789 1 204.75 102.75 120.75
258939 1 174.75 108.75 120.75
284201 1 120.75 96.75 132.75
290522 1 123.75 93.75 135.75
290600 1 117.75 96.75 135.75
290601 1 120.75 96.75 135.75
291723 1 126.75 138.75 135.75
296923 1 126.75 93.75 138.75
297001 1 120.75 96.75 138.75
297002 1 123.75 96.75 138.75
303324 1 129.75 93.75 141.75
303402 1 123.75 96.75 141.75
303403 1 126.75 96.75 141.75
303482 1 123.75 99.75 141.75
309013 1 156.75 66.75 144.75
309802 1 123.75 96.75 144.75
309886 1 135.75 99.75 144.75
316285 1 132.75 99.75 147.75
316628 1 201.75 111.75 147.75
322600 1 117.75 96.75 150.75
343172 1 153.75 147.75 159.75
686936 1 167.25 80.25 83.25
739744 1 191.25 140.25 107.25
746064 1 191.25 137.25 110.25
764619 1 176.25 113.25 119.25
770511 1 92.25 95.25 122.25
776605 1 134.25 83.25 125.25
783574 1 161.25 104.25 128.25
789880 1 119.25 101.25 131.25
789894 1 161.25 101.25 131.25
789973 1 158.25 104.25 131.25
796121 1 122.25 95.25 134.25
796214 1 161.25 98.25 134.25
796295 1 164.25 101.25 134.25
802445 1 134.25 92.25 137.25
802521 1 122.25 95.25 137.25
802522 1 125.25 95.25 137.25
802600 1 119.25 98.25 137.25
802615 1 164.25 98.25 137.25
803171 1 152.25 119.25 137.25
808922 1 125.25 95.25 140.25
808923 1 128.25 95.25 140.25
809001 1 122.25 98.25 140.25
814612 1 155.25 68.25 143.25
815244 1 131.25 92.25 143.25
815323 1 128.25 95.25 143.25
815324 1 131.25 95.25 143.25
815325 1 134.25 95.25 143.25
815404 1 131.25 98.25 143.25
821724 1 131.25 95.25 146.25
834519 1 116.25 95.25 152.25
834600 1 119.25 98.25 152.25
840920 1 119.25 95.25 155.25
874127 1 140.25 140.25 170.25
892355 1 104.25 104.25 179.25
