ITEM: TIMESTEP
77000
ITEM: NUMBER OF ATOMS
32
ITEM: BOX BOUNDS pp pp pp
0 240
0 240
0 240
ITEM: ATOMS id type x y z
208031 1 90.75 120.75 96.75
214353 1 96.75 117.75 99.75
220921 1 120.75 123.75 102.75
227157 1 108.75 117.75 105.75
227476 1 105.75 129.75 105.75
227638 1 111.75 135.75 105.75
240276 1 105.75 129.75 111.75
240281 1 120.75 129.75 111.75
246840 1 117.75 135.75 114.75
252835 1 102.75 120.75 117.75
303546 1 75.75 102.75 141.75
334915 1 102.75 78.75 156.75
335716 1 105.75 108.75 156.75
347949 1 84.75 87.75 162.75
360986 1 75.75 96.75 168.75
707071 1 92.25 116.25 92.25
719713 1 98.25 110.25 98.25
720035 1 104.25 122.25 98.25
726356 1 107.25 119.25 101.25
732597 1 110.25 113.25 104.25
738915 1 104.25 110.25 107.25
739073 1 98.25 116.25 107.25
739395 1 104.25 128.25 107.25
745552 1 95.25 119.25 110.25
745559 1 116.25 119.25 110.25
745718 1 113.25 125.25 110.25
745796 1 107.25 128.25 110.25
751954 1 101.25 119.25 113.25
771640 1 119.25 137.25 122.25
796912 1 95.25 125.25 134.25
828506 1 77.25 110.25 149.25
840747 1 80.25 89.25 155.25
