ITEM: TIMESTEP
77375
ITEM: NUMBER OF ATOMS
17
ITEM: BOX BOUNDS pp pp pp
0 240
0 240
0 240
ITEM: ATOMS id type x y z c_myKE c_myPE
143871 1 89.4957 110.6 59.5431 0 -6.25552
712270 1 88.2557 69.1271 94.6401 0 -6.25557
739071 1 94.4656 120.16 101.001 0 -6.60255
214593 1 97.8009 123.347 101.095 0 -6.90993
764594 1 97.8017 120.251 104.19 0 -6.91051
757944 1 69.1121 102.276 116.973 0 -6.25411
816591 1 91.4423 143.751 145.678 0 -6.25581
643629 1 81.5283 135.785 59.2106 0 -6.82196
195155 1 81.4052 139.041 62.4673 0 -6.54694
162357 1 107.056 84.7371 71.9721 0 -6.82231
168758 1 110.313 84.6132 75.2276 0 -6.54772
763959 1 116.617 87.9227 121.755 0 -6.25529
265540 1 52.8906 118.694 124.865 0 -6.54801
271939 1 49.6357 118.568 128.122 0 -6.82214
821387 1 77.092 83.4873 148.523 0 -6.25546
316591 1 89.8377 110.266 150.456 0 -6.82239
316670 1 86.5807 113.522 150.58 0 -6.54762
