ITEM: TIMESTEP
77000
ITEM: NUMBER OF ATOMS
17
ITEM: BOX BOUNDS pp pp pp
0 240
0 240
0 240
ITEM: ATOMS id type x y z c_myKE c_myPE
143871 1 89.582 110.949 59.424 0.188962 -6.59648
712270 1 88.2184 68.9524 94.7171 0.235984 -6.48593
739071 1 94.4748 120.018 101.064 0.173138 -8.6977
214593 1 97.7422 123.022 101.287 0.0123168 -6.21145
764594 1 97.6376 120.095 104.371 0.142153 -7.27814
757944 1 69.4097 102.478 116.748 0.486214 -6.69066
821467 1 78.7682 85.193 147.283 0.11321 -6.52703
816591 1 91.494 143.738 145.488 0.166055 -6.19791
643629 1 81.5196 135.941 59.2281 0.0334951 -6.53004
195155 1 81.6553 139.1 62.6381 0.0702757 -6.75328
162357 1 106.874 84.7458 71.9314 0.0197627 -6.75212
168758 1 110.22 84.8603 74.9324 0.225622 -6.10219
763959 1 116.529 88.1387 121.408 0.0865041 -5.99907
265540 1 53.1264 118.532 124.933 0.083598 -6.55626
271939 1 49.7376 118.412 128.2 0.184447 -6.58301
316591 1 89.9042 110.281 150.406 0.303237 -6.94428
316670 1 86.6454 113.597 150.515 0.123976 -6.8132
