ITEM: TIMESTEP
77298
ITEM: NUMBER OF ATOMS
44
ITEM: BOX BOUNDS pp pp pp
0 240
0 240
0 240
ITEM: ATOMS id type x y z
182125 1 132.75 108.75 84.75
188524 1 129.75 108.75 87.75
239872 1 93.75 114.75 111.75
246284 1 129.75 114.75 114.75
246357 1 108.75 117.75 114.75
246527 1 138.75 123.75 114.75
253159 1 114.75 132.75 117.75
258927 1 138.75 108.75 120.75
259004 1 129.75 111.75 120.75
259157 1 108.75 117.75 120.75
259158 1 111.75 117.75 120.75
260435 1 102.75 165.75 120.75
265240 1 117.75 105.75 123.75
265640 1 117.75 120.75 123.75
272202 1 123.75 126.75 126.75
278198 1 111.75 111.75 129.75
284919 1 114.75 123.75 132.75
297568 1 141.75 117.75 138.75
297716 1 105.75 123.75 138.75
304281 1 120.75 129.75 141.75
687723 1 128.25 110.25 83.25
700525 1 134.25 110.25 89.25
732448 1 143.25 107.25 104.25
732608 1 143.25 113.25 104.25
759635 1 104.25 167.25 116.25
764434 1 101.25 107.25 119.25
764606 1 137.25 113.25 119.25
764677 1 110.25 116.25 119.25
770827 1 80.25 107.25 122.25
770918 1 113.25 110.25 122.25
771077 1 110.25 116.25 122.25
771161 1 122.25 119.25 122.25
771241 1 122.25 122.25 122.25
772355 1 104.25 164.25 122.25
777315 1 104.25 110.25 125.25
777557 1 110.25 119.25 125.25
783236 1 107.25 92.25 128.25
783719 1 116.25 110.25 128.25
784037 1 110.25 122.25 128.25
790040 1 119.25 107.25 131.25
790211 1 152.25 113.25 131.25
796595 1 104.25 113.25 134.25
803157 1 110.25 119.25 137.25
809717 1 110.25 125.25 140.25
