ITEM: TIMESTEP
80215
ITEM: NUMBER OF ATOMS
39
ITEM: BOX BOUNDS pp pp pp
0 240
0 240
0 240
ITEM: ATOMS id type x y z
233395 1 102.75 111.75 108.75
239315 1 102.75 93.75 111.75
265473 1 96.75 114.75 123.75
271799 1 114.75 111.75 126.75
316118 1 111.75 93.75 147.75
317634 1 99.75 150.75 147.75
323792 1 93.75 141.75 150.75
328760 1 117.75 87.75 153.75
336031 1 90.75 120.75 156.75
341719 1 114.75 93.75 159.75
356036 1 105.75 150.75 165.75
361881 1 120.75 129.75 168.75
381087 1 138.75 129.75 177.75
387235 1 102.75 120.75 180.75
387317 1 108.75 123.75 180.75
393483 1 126.75 114.75 183.75
413407 1 138.75 141.75 192.75
420047 1 138.75 150.75 195.75
719314 1 101.25 95.25 98.25
744996 1 107.25 98.25 110.25
750835 1 104.25 77.25 113.25
751316 1 107.25 95.25 113.25
751794 1 101.25 113.25 113.25
764513 1 98.25 110.25 119.25
764593 1 98.25 113.25 119.25
770993 1 98.25 113.25 122.25
797155 1 104.25 134.25 134.25
803634 1 101.25 137.25 137.25
808998 1 113.25 98.25 140.25
810114 1 101.25 140.25 140.25
815795 1 104.25 113.25 143.25
829313 1 98.25 140.25 149.25
829557 1 110.25 149.25 149.25
834595 1 104.25 98.25 152.25
835713 1 98.25 140.25 152.25
841476 1 107.25 116.25 155.25
893719 1 116.25 155.25 179.25
899084 1 131.25 116.25 182.25
905567 1 140.25 119.25 185.25
