ITEM: TIMESTEP
77627
ITEM: NUMBER OF ATOMS
40
ITEM: BOX BOUNDS pp pp pp
0 240
0 240
0 240
ITEM: ATOMS id type x y z
214440 1 117.75 120.75 99.75
220347 1 78.75 102.75 102.75
220519 1 114.75 108.75 102.75
226676 1 105.75 99.75 105.75
233077 1 108.75 99.75 108.75
239235 1 102.75 90.75 111.75
239475 1 102.75 99.75 111.75
245879 1 114.75 99.75 114.75
245959 1 114.75 102.75 114.75
251958 1 111.75 87.75 117.75
258514 1 99.75 93.75 120.75
258597 1 108.75 96.75 120.75
264675 1 102.75 84.75 123.75
264757 1 108.75 87.75 123.75
264914 1 99.75 93.75 123.75
264991 1 90.75 96.75 123.75
264997 1 108.75 96.75 123.75
271320 1 117.75 93.75 126.75
271397 1 108.75 96.75 126.75
271404 1 129.75 96.75 126.75
271480 1 117.75 99.75 126.75
284117 1 108.75 93.75 132.75
284353 1 96.75 102.75 132.75
303639 1 114.75 105.75 141.75
726203 1 128.25 113.25 101.25
738668 1 83.25 101.25 107.25
744687 1 140.25 86.25 110.25
744926 1 137.25 95.25 110.25
745401 1 122.25 113.25 110.25
751158 1 113.25 89.25 113.25
751396 1 107.25 98.25 113.25
751398 1 113.25 98.25 113.25
751471 1 92.25 101.25 113.25
764432 1 95.25 107.25 119.25
770515 1 104.25 95.25 122.25
777080 1 119.25 101.25 125.25
777238 1 113.25 107.25 125.25
783394 1 101.25 98.25 128.25
796195 1 104.25 98.25 134.25
796196 1 107.25 98.25 134.25
