ITEM: TIMESTEP
84209
ITEM: NUMBER OF ATOMS
55
ITEM: BOX BOUNDS pp pp pp
0 240
0 240
0 240
ITEM: ATOMS id type x y z
181478 1 111.75 84.75 84.75
206915 1 102.75 78.75 96.75
213316 1 105.75 78.75 99.75
214128 1 141.75 108.75 99.75
225747 1 198.75 63.75 105.75
232067 1 198.75 60.75 108.75
258688 1 141.75 99.75 120.75
259317 1 108.75 123.75 120.75
265089 1 144.75 99.75 123.75
265718 1 111.75 123.75 123.75
265798 1 111.75 126.75 123.75
266210 1 147.75 141.75 123.75
309020 1 177.75 66.75 144.75
309735 1 162.75 93.75 144.75
315114 1 219.75 54.75 147.75
315195 1 222.75 57.75 147.75
315419 1 174.75 66.75 147.75
317574 1 159.75 147.75 147.75
323975 1 162.75 147.75 150.75
324054 1 159.75 150.75 150.75
353438 1 231.75 51.75 165.75
354284 1 129.75 84.75 165.75
356775 1 162.75 177.75 165.75
360685 1 132.75 84.75 168.75
360764 1 129.75 87.75 168.75
374601 1 120.75 126.75 174.75
407734 1 159.75 168.75 189.75
414135 1 162.75 168.75 192.75
451741 1 180.75 138.75 210.75
693399 1 116.25 83.25 86.25
693478 1 113.25 86.25 86.25
699798 1 113.25 83.25 89.25
714116 1 107.25 140.25 95.25
714195 1 104.25 143.25 95.25
720515 1 104.25 140.25 98.25
726281 1 122.25 116.25 101.25
732601 1 122.25 113.25 104.25
732682 1 125.25 116.25 104.25
759319 1 116.25 155.25 116.25
771318 1 113.25 125.25 122.25
777637 1 110.25 122.25 125.25
778129 1 146.25 140.25 125.25
787834 1 221.25 23.25 131.25
794154 1 221.25 20.25 134.25
794233 1 218.25 23.25 134.25
807026 1 197.25 23.25 140.25
815254 1 161.25 92.25 143.25
821574 1 161.25 89.25 146.25
821653 1 158.25 92.25 146.25
829334 1 161.25 140.25 149.25
829494 1 161.25 146.25 149.25
858390 1 209.25 29.25 164.25
880121 1 122.25 125.25 173.25
919734 1 161.25 170.25 191.25
963740 1 179.25 140.25 212.25
