ITEM: TIMESTEP
78178
ITEM: NUMBER OF ATOMS
30
ITEM: BOX BOUNDS pp pp pp
0 240
0 240
0 240
ITEM: ATOMS id type x y z c_myKE c_myPE
700195 1 102.251 95.9015 86.3112 0 -6.25517
719634 1 101.02 108.674 95.8876 0 -6.24716
739311 1 91.4373 126.563 104.207 0 -6.25342
744210 1 151.856 65.7485 108.56 0 -6.75733
784128 1 145.874 126.522 127.695 0 -7.35234
784209 1 148.68 129.932 127.954 0 -7.44815
802764 1 134.297 97.6512 137.448 0 -8.34901
802765 1 137.505 97.617 137.41 0 -8.30119
290686 1 137.445 100.856 137.517 0 -7.88964
297085 1 140.338 101.027 137.453 0 -7.35718
296689 1 143.774 79.9068 139.338 0 -6.24914
802604 1 134.309 97.6751 140.6 0 -8.20847
290685 1 137.332 97.747 140.565 0 -8.28459
297244 1 134.356 100.868 140.554 0 -7.88108
809004 1 134.248 101.063 143.51 0 -7.41406
836123 1 127.664 158.46 155.271 0 -6.82431
860688 1 143.664 115.045 166.095 0 -6.91732
867087 1 140.565 115.047 169.189 0 -6.91574
355248 1 143.749 118.382 169.291 0 -6.60152
238690 1 150.361 67.6153 110.349 0 -7.53206
245090 1 150.604 64.4139 113.247 0 -7.19908
750688 1 147.197 67.6227 113.606 0 -6.56855
265889 1 147.362 131.311 123.046 0 -6.92983
278529 1 147.337 125.012 129.406 0 -7.09943
278610 1 150.436 127.979 129.523 0 -7.03335
796206 1 135.973 96.1437 135.745 0 -7.62752
278047 1 138.886 99.3256 135.771 0 -8.11762
303564 1 132.574 96.1572 139.071 0 -7.52925
303485 1 132.59 99.4232 142.037 0 -8.00651
324123 1 126.08 156.69 153.5 0 -6.54196
