ITEM: TIMESTEP
78000
ITEM: NUMBER OF ATOMS
39
ITEM: BOX BOUNDS pp pp pp
0 240
0 240
0 240
ITEM: ATOMS id type x y z
189319 1 114.75 138.75 87.75
234924 1 129.75 168.75 108.75
240370 1 147.75 132.75 111.75
270921 1 120.75 78.75 126.75
272196 1 105.75 126.75 126.75
277162 1 123.75 72.75 129.75
277241 1 120.75 75.75 129.75
277320 1 117.75 78.75 129.75
277321 1 120.75 78.75 129.75
277322 1 123.75 78.75 129.75
277401 1 120.75 81.75 129.75
283642 1 123.75 75.75 132.75
283722 1 123.75 78.75 132.75
283723 1 126.75 78.75 132.75
283802 1 123.75 81.75 132.75
290123 1 126.75 78.75 135.75
310190 1 87.75 111.75 144.75
324025 1 72.75 150.75 150.75
361625 1 72.75 120.75 168.75
368187 1 78.75 126.75 171.75
373952 1 93.75 102.75 174.75
397957 1 108.75 42.75 186.75
399088 1 141.75 84.75 186.75
412194 1 99.75 96.75 192.75
426037 1 108.75 135.75 198.75
693730 1 149.25 95.25 86.25
694432 1 95.25 122.25 86.25
694757 1 110.25 134.25 86.25
700752 1 95.25 119.25 89.25
732360 1 119.25 104.25 104.25
777796 1 107.25 128.25 125.25
784116 1 107.25 125.25 128.25
784197 1 110.25 128.25 128.25
789241 1 122.25 77.25 131.25
795642 1 125.25 77.25 134.25
815148 1 83.25 89.25 143.25
867226 1 77.25 122.25 167.25
910926 1 137.25 80.25 188.25
924114 1 101.25 95.25 194.25
