ITEM: TIMESTEP
77000
ITEM: NUMBER OF ATOMS
39
ITEM: BOX BOUNDS pp pp pp
0 240
0 240
0 240
ITEM: ATOMS id type x y z
207393 1 96.75 96.75 96.75
226674 1 99.75 99.75 105.75
233076 1 105.75 99.75 108.75
247156 1 105.75 147.75 114.75
253633 1 96.75 150.75 117.75
257955 1 102.75 72.75 120.75
264431 1 90.75 75.75 123.75
265075 1 102.75 99.75 123.75
271070 1 87.75 84.75 126.75
271237 1 108.75 90.75 126.75
271475 1 102.75 99.75 126.75
277236 1 105.75 75.75 129.75
277476 1 105.75 84.75 129.75
277553 1 96.75 87.75 129.75
277793 1 96.75 96.75 129.75
277875 1 102.75 99.75 129.75
283949 1 84.75 87.75 132.75
283951 1 90.75 87.75 132.75
283952 1 93.75 87.75 132.75
284354 1 99.75 102.75 132.75
284519 1 114.75 108.75 132.75
290837 1 108.75 105.75 135.75
292037 1 108.75 150.75 135.75
296432 1 93.75 75.75 138.75
750911 1 92.25 80.25 113.25
751473 1 98.25 101.25 113.25
757229 1 86.25 77.25 116.25
776673 1 98.25 86.25 125.25
776751 1 92.25 89.25 125.25
776915 1 104.25 95.25 125.25
778277 1 110.25 146.25 125.25
783235 1 104.25 92.25 128.25
783473 1 98.25 101.25 128.25
789875 1 104.25 101.25 131.25
796271 1 92.25 101.25 134.25
801949 1 86.25 74.25 137.25
802032 1 95.25 77.25 137.25
802434 1 101.25 92.25 137.25
859875 1 104.25 86.25 164.25
