ITEM: TIMESTEP
77299
ITEM: NUMBER OF ATOMS
55
ITEM: BOX BOUNDS pp pp pp
0 240
0 240
0 240
ITEM: ATOMS id type x y z
99078 1 111.75 114.75 45.75
100133 1 156.75 153.75 45.75
124926 1 135.75 123.75 57.75
125007 1 138.75 126.75 57.75
125086 1 135.75 129.75 57.75
125088 1 141.75 129.75 57.75
125169 1 144.75 132.75 57.75
131406 1 135.75 126.75 60.75
150680 1 117.75 129.75 69.75
155979 1 174.75 87.75 72.75
161980 1 177.75 72.75 75.75
162220 1 177.75 81.75 75.75
162301 1 180.75 84.75 75.75
168700 1 177.75 84.75 78.75
189083 1 126.75 129.75 87.75
194984 1 69.75 111.75 90.75
195403 1 126.75 126.75 90.75
195483 1 126.75 129.75 90.75
195484 1 129.75 129.75 90.75
195563 1 126.75 132.75 90.75
201385 1 72.75 111.75 93.75
201464 1 69.75 114.75 93.75
201882 1 123.75 129.75 93.75
201961 1 120.75 132.75 93.75
201962 1 123.75 132.75 93.75
201963 1 126.75 132.75 93.75
202043 1 126.75 135.75 93.75
202044 1 129.75 135.75 93.75
202124 1 129.75 138.75 93.75
208362 1 123.75 132.75 96.75
208453 1 156.75 135.75 96.75
208523 1 126.75 138.75 96.75
209325 1 132.75 168.75 96.75
214854 1 159.75 135.75 99.75
277785 1 72.75 96.75 129.75
298196 1 105.75 141.75 138.75
592600 1 119.25 143.25 38.25
605732 1 155.25 155.25 44.25
637006 1 137.25 128.25 59.25
637479 1 116.25 146.25 59.25
675339 1 176.25 125.25 77.25
688907 1 80.25 155.25 83.25
700125 1 134.25 95.25 89.25
707402 1 125.25 128.25 92.25
707482 1 125.25 131.25 92.25
707563 1 128.25 134.25 92.25
713419 1 176.25 113.25 95.25
713962 1 125.25 134.25 95.25
714042 1 125.25 137.25 95.25
714043 1 128.25 137.25 95.25
720362 1 125.25 134.25 98.25
770444 1 131.25 92.25 122.25
777637 1 110.25 122.25 125.25
803965 1 134.25 149.25 137.25
804044 1 131.25 152.25 137.25
