ITEM: TIMESTEP
77000
ITEM: NUMBER OF ATOMS
22
ITEM: BOX BOUNDS pp pp pp
0 240
0 240
0 240
ITEM: ATOMS id type x y z
195323 1 126.75 123.75 90.75
207728 1 141.75 108.75 96.75
213965 1 132.75 102.75 99.75
213966 1 135.75 102.75 99.75
214045 1 132.75 105.75 99.75
220443 1 126.75 105.75 102.75
226284 1 129.75 84.75 105.75
226764 1 129.75 102.75 105.75
227004 1 129.75 111.75 105.75
233005 1 132.75 96.75 108.75
233081 1 120.75 99.75 108.75
233327 1 138.75 108.75 108.75
233808 1 141.75 126.75 108.75
245560 1 117.75 87.75 114.75
655716 1 107.25 110.25 68.25
687800 1 119.25 113.25 83.25
713872 1 95.25 131.25 95.25
719486 1 137.25 101.25 98.25
719799 1 116.25 113.25 98.25
738198 1 113.25 83.25 107.25
738766 1 137.25 104.25 107.25
739162 1 125.25 119.25 107.25
