ITEM: TIMESTEP
80000
ITEM: NUMBER OF ATOMS
29
ITEM: BOX BOUNDS pp pp pp
0 240
0 240
0 240
ITEM: ATOMS id type x y z c_myKE c_myPE
750600 1 119.985 64.0183 113.811 0.0496485 -6.08743
245318 1 108.855 76.7501 113.955 0.0326552 -6.73643
763715 1 104.074 75.65 118.58 0.0604025 -7.10761
778030 1 86.4699 139.243 127.038 0.0574685 -6.34968
795813 1 159.784 81.979 134.378 0.0508667 -6.49781
802214 1 162.991 81.9469 137.609 0.146712 -6.63759
820372 1 158.372 41.4475 146.663 0.126188 -7.12648
820533 1 161.526 44.7628 147.023 0.266211 -7.90529
316201 1 123.395 94.7849 147.031 0.243331 -6.95443
815323 1 127.355 94.8759 145.494 0.169839 -7.0474
820532 1 158.573 44.7486 150.011 0.0233764 -7.48448
315092 1 161.542 48.1518 150.256 0.146276 -7.40809
834514 1 98.7314 92.7112 155.309 0.0378684 -6.604
840834 1 98.8322 89.5458 158.555 0.056256 -7.50943
340447 1 140.487 43.45 161.79 0.236061 -6.40745
861866 1 73.5584 163.513 165.911 0.392154 -6.99885
893148 1 81.9281 136.619 182.257 0.309219 -6.03213
987470 1 86.5234 69.3418 229.835 0.385296 -6.80288
296597 1 108.712 77.57 139.367 0.0933969 -6.62921
296931 1 153.363 91.5247 141.734 0.102192 -6.44065
302203 1 126.263 48.2159 143.904 0.088094 -5.86151
821803 1 125.993 94.2036 147.599 0.248536 -7.34811
314934 1 161.473 45.0823 150.296 0.243464 -7.36702
321415 1 164.47 45.2933 150.423 0.213621 -7.24536
316123 1 126.28 91.1078 150.368 0.196212 -7.17449
328833 1 94.5131 87.8261 156.862 0.58251 -7.05805
855306 1 75.0998 160.114 163.666 0.221252 -7.11032
356273 1 96.6466 162.998 167.264 0.232079 -6.56815
394611 1 153.597 157.857 186.922 0.163728 -5.92323
