ITEM: TIMESTEP
80224
ITEM: NUMBER OF ATOMS
30
ITEM: BOX BOUNDS pp pp pp
0 240
0 240
0 240
ITEM: ATOMS id type x y z
207393 1 96.75 96.75 96.75
239316 1 105.75 93.75 111.75
258593 1 96.75 96.75 120.75
264833 1 96.75 90.75 123.75
277871 1 90.75 99.75 129.75
284754 1 99.75 117.75 132.75
308845 1 132.75 60.75 144.75
309326 1 135.75 78.75 144.75
315490 1 147.75 69.75 147.75
322044 1 129.75 75.75 150.75
340690 1 147.75 54.75 159.75
341330 1 147.75 78.75 159.75
348681 1 120.75 114.75 162.75
349866 1 75.75 159.75 162.75
360452 1 153.75 75.75 168.75
374359 1 114.75 117.75 174.75
374516 1 105.75 123.75 174.75
380754 1 99.75 117.75 177.75
412999 1 114.75 126.75 192.75
725712 1 95.25 95.25 101.25
789792 1 95.25 98.25 131.25
821249 1 146.25 77.25 146.25
827722 1 125.25 80.25 149.25
827723 1 128.25 80.25 149.25
834051 1 152.25 77.25 152.25
840290 1 149.25 71.25 155.25
861076 1 107.25 131.25 164.25
873392 1 95.25 113.25 170.25
886356 1 107.25 119.25 176.25
905398 1 113.25 113.25 185.25
