ITEM: TIMESTEP
79000
ITEM: NUMBER OF ATOMS
33
ITEM: BOX BOUNDS pp pp pp
0 240
0 240
0 240
ITEM: ATOMS id type x y z c_myKE c_myPE
637247 1 140.445 139.151 56.6352 0.587584 -6.47516
693721 1 121.606 94.7303 83.1457 0.307526 -6.38023
182938 1 177.514 140.601 84.82 0.0707643 -6.30479
706909 1 81.881 108.84 89.7546 0.105652 -7.25504
202845 1 131.057 168.586 91.3629 0.124775 -6.77922
220842 1 127.788 124.766 107.561 0.452569 -6.83216
221085 1 130.976 127.867 107.375 0.0634064 -6.59436
778281 1 123.379 146.848 124.735 0.607018 -6.668
778125 1 133.831 140.671 126.652 0.160956 -7.22727
778206 1 137.506 143.409 126.348 0.0493522 -7.01774
279085 1 134.312 143.74 129.745 0.238062 -7.64685
803025 1 198.206 111.83 139.192 0.4011 -6.75482
298365 1 135.987 146.875 140.551 0.47149 -7.69815
292045 1 133.247 150.532 140.956 0.207279 -7.79045
810365 1 135.557 149.736 140.225 0.2997 -7.68083
816765 1 135.514 150.405 143.121 0.207705 -7.04665
336278 1 111.679 129.758 161.745 0.0456868 -6.69255
118852 1 154.96 137.768 51.4623 0.0968649 -6.16193
181880 1 116.735 99.4037 81.5825 0.0765043 -6.73121
183097 1 172.761 145.206 83.7765 0.243681 -6.011
201160 1 116.741 106.084 91.2534 0.0606738 -6.96439
706842 1 118.657 107.063 93.2297 0.0138346 -7.72496
207719 1 115.442 110.509 93.1151 0.398298 -6.59332
213640 1 118.63 87.9884 99.444 0.0599664 -6.80678
221259 1 180.391 135.252 99.1542 0.162874 -6.01242
246298 1 174.181 112.815 113.439 0.376484 -6.09764
246536 1 167.501 122.842 113.336 0.348816 -6.42942
272765 1 132.755 145.535 128.087 0.34819 -6.73252
272846 1 132.677 148.319 128.14 0.0294942 -6.99367
791085 1 132.662 145.653 131.383 0.264827 -7.31039
285646 1 137.291 151.586 135.967 0.159326 -6.67134
810445 1 134.258 151.646 138.548 0.184277 -7.62594
304926 1 135.515 154.115 139.317 0.261287 -7.54066
