ITEM: TIMESTEP
81965
ITEM: NUMBER OF ATOMS
44
ITEM: BOX BOUNDS pp pp pp
0 240
0 240
0 240
ITEM: ATOMS id type x y z c_myKE c_myPE
706351 1 91.4573 86.3268 89.5394 0 -6.25578
706514 1 99.0725 94.6507 89.5357 0 -6.25531
258432 1 89.4819 89.5453 123.257 0 -6.89004
770512 1 92.7628 92.7269 123.625 0 -7.29163
784979 1 53.1725 161.636 127.816 0 -6.25478
322682 1 126.512 97.9125 150.158 0 -6.90706
834602 1 123.175 97.8198 153.341 0 -6.60313
322762 1 126.512 101.007 153.254 0 -6.9088
841625 1 72.3603 123.329 156.547 0 -6.37932
342588 1 79.9799 124.743 161.496 0 -8.29059
848108 1 75.383 126.549 163.023 0 -8.44359
854588 1 78.5121 126.425 163.064 0 -8.7121
348987 1 75.421 129.674 166.213 0 -8.7824
860987 1 78.5513 129.62 166.26 0 -8.3489
381215 1 38.4568 134.155 180.808 0 -6.25329
932259 1 51.2998 162.765 203.055 0 -6.553
938658 1 48.0445 162.899 206.308 0 -6.8224
472727 1 11.7036 213.92 223.506 0 -6.25433
201877 1 107.044 128.143 91.1229 0 -6.25311
264992 1 93.0938 93.2416 126.216 0 -7.69524
265721 1 121.685 122.895 124.882 0 -6.54553
783392 1 89.6219 92.9021 129.312 0 -6.75708
783472 1 93.0008 96.2266 129.469 0 -7.02949
272122 1 124.939 123.024 128.138 0 -6.81634
336189 1 78.4687 126.345 159.864 0 -7.94419
861145 1 73.7886 131.161 161.372 0 -8.09211
348828 1 80.1853 121.708 164.642 0 -7.69828
348989 1 81.5845 126.293 163.121 0 -8.62057
348831 1 83.3407 124.851 164.632 0 -7.7855
854506 1 73.8503 128.105 164.659 0 -8.45394
342587 1 76.9815 128.041 164.653 0 -8.76603
348988 1 80.1159 127.997 164.628 0 -8.52782
336346 1 70.7535 131.322 164.518 0 -7.80085
349145 1 75.284 132.646 163.089 0 -8.63611
342746 1 73.8468 134.418 164.575 0 -8.06731
343155 1 100.737 148.59 163.319 0 -6.31002
348909 1 81.6326 126.361 166.363 0 -8.00708
349066 1 73.8583 131.297 167.724 0 -8.42089
860986 1 76.9975 131.316 167.801 0 -8.235
867546 1 76.9179 134.445 167.726 0 -7.52738
368279 1 116.622 131.333 174.061 0 -6.25467
375696 1 38.8617 170.811 179.243 0 -6.35924
426180 1 54.7555 142.145 202.794 0 -6.24912
450981 1 57.9437 110.227 215.563 0 -6.25492
