ITEM: TIMESTEP
79000
ITEM: NUMBER OF ATOMS
41
ITEM: BOX BOUNDS pp pp pp
0 240
0 240
0 240
ITEM: ATOMS id type x y z
207393 1 96.75 96.75 96.75
233721 1 120.75 123.75 108.75
239551 1 90.75 102.75 111.75
239797 1 108.75 111.75 111.75
240121 1 120.75 123.75 111.75
240360 1 117.75 132.75 111.75
246597 1 108.75 126.75 114.75
252753 1 96.75 117.75 117.75
254363 1 126.75 177.75 117.75
259236 1 105.75 120.75 120.75
259314 1 99.75 123.75 120.75
265233 1 96.75 105.75 123.75
267000 1 117.75 171.75 123.75
271466 1 75.75 99.75 126.75
274283 1 126.75 204.75 126.75
277870 1 87.75 99.75 129.75
278191 1 90.75 111.75 129.75
280604 1 129.75 201.75 129.75
284357 1 108.75 102.75 132.75
284755 1 102.75 117.75 132.75
290916 1 105.75 108.75 135.75
292517 1 108.75 168.75 135.75
296745 1 72.75 87.75 138.75
298047 1 138.75 135.75 138.75
299884 1 129.75 204.75 138.75
343495 1 162.75 159.75 159.75
751469 1 86.25 101.25 113.25
752194 1 101.25 128.25 113.25
752279 1 116.25 131.25 113.25
759800 1 119.25 173.25 116.25
764190 1 89.25 98.25 119.25
764434 1 101.25 107.25 119.25
764512 1 95.25 110.25 119.25
777153 1 98.25 104.25 125.25
777233 1 98.25 107.25 125.25
783226 1 77.25 92.25 128.25
783306 1 77.25 95.25 128.25
786205 1 134.25 203.25 128.25
792604 1 131.25 203.25 131.25
792764 1 131.25 209.25 131.25
816689 1 146.25 146.25 143.25
