ITEM: TIMESTEP
78191
ITEM: NUMBER OF ATOMS
43
ITEM: BOX BOUNDS pp pp pp
0 240
0 240
0 240
ITEM: ATOMS id type x y z
194590 1 87.75 96.75 90.75
226993 1 96.75 111.75 105.75
311155 1 102.75 147.75 144.75
317475 1 102.75 144.75 147.75
317556 1 105.75 147.75 147.75
323959 1 114.75 147.75 150.75
328512 1 93.75 78.75 153.75
330835 1 102.75 165.75 153.75
330836 1 105.75 165.75 153.75
337155 1 102.75 162.75 156.75
337156 1 105.75 162.75 156.75
337236 1 105.75 165.75 156.75
343475 1 102.75 159.75 159.75
343556 1 105.75 162.75 159.75
381088 1 141.75 129.75 177.75
739870 1 89.25 146.25 107.25
746271 1 92.25 146.25 110.25
758589 1 86.25 128.25 116.25
772276 1 107.25 161.25 122.25
772357 1 110.25 164.25 122.25
778677 1 110.25 161.25 125.25
778756 1 107.25 164.25 125.25
802839 1 116.25 107.25 137.25
816595 1 104.25 143.25 143.25
822996 1 107.25 143.25 146.25
833952 1 95.25 74.25 152.25
836274 1 101.25 161.25 152.25
836435 1 104.25 167.25 152.25
837236 1 107.25 197.25 152.25
840351 1 92.25 74.25 155.25
840353 1 98.25 74.25 155.25
840432 1 95.25 77.25 155.25
842594 1 101.25 158.25 155.25
842673 1 98.25 161.25 155.25
842674 1 101.25 161.25 155.25
842754 1 101.25 164.25 155.25
842755 1 104.25 164.25 155.25
842836 1 107.25 167.25 155.25
846673 1 98.25 71.25 158.25
846752 1 95.25 74.25 158.25
849074 1 101.25 161.25 158.25
849075 1 104.25 161.25 158.25
849156 1 107.25 164.25 158.25
