ITEM: TIMESTEP
76273
ITEM: NUMBER OF ATOMS
33
ITEM: BOX BOUNDS pp pp pp
0 240
0 240
0 240
ITEM: ATOMS id type x y z c_myKE c_myPE
637482 1 124.597 146.927 56.3559 0 -6.25494
668515 1 104.058 108.803 70.2451 0 -6.5415
700840 1 120.165 121.401 86.3108 0 -6.25441
695391 1 91.4507 159.688 85.0632 0 -6.25317
699212 1 28.9063 59.5619 88.2672 0 -6.25467
708015 1 38.4687 153.314 89.5073 0 -6.25428
713625 1 72.1467 121.573 92.5937 0 -6.54897
802443 1 126.536 92.6933 137.351 0 -6.255
808586 1 75.5313 78.6645 143.759 0 -6.25898
847949 1 84.7873 119.982 159.536 0 -7.43455
847946 1 75.5604 123.304 159.687 0 -7.90328
854269 1 85.157 117.144 162.947 0 -7.40266
854348 1 81.9668 120.301 163.128 0 -8.01834
854426 1 75.6012 123.213 162.909 0 -8.11942
848108 1 79.9816 124.716 161.533 0 -8.52065
848109 1 83.0925 124.489 161.523 0 -8.21194
854507 1 78.57 126.474 163.049 0 -7.85293
854508 1 80.0291 124.774 164.778 0 -7.92786
162916 1 105.828 107.033 71.8288 0 -6.82135
163628 1 81.5327 137.713 71.9615 0 -6.25478
181082 1 123.007 67.5243 81.5316 0 -6.25398
713545 1 73.9227 119.799 94.1735 0 -6.87692
726186 1 77.1063 113.445 100.72 0 -7.00918
732667 1 80.3224 116.512 100.659 0 -7.65185
732666 1 77.1246 116.723 104.097 0 -6.73468
227148 1 80.405 119.936 103.942 0 -6.67042
271800 1 116.62 110.232 124.937 0 -6.25623
265795 1 100.678 128.151 124.911 0 -6.25398
335861 1 56.0038 113.424 156.871 0 -6.25493
848026 1 77.2115 121.615 161.36 0 -8.16119
342428 1 80.2285 121.617 161.452 0 -8.1486
854425 1 74.011 124.938 161.414 0 -7.32588
348749 1 83.4426 118.538 164.565 0 -7.28288
