ITEM: TIMESTEP
75407
ITEM: NUMBER OF ATOMS
35
ITEM: BOX BOUNDS pp pp pp
0 240
0 240
0 240
ITEM: ATOMS id type x y z c_myKE c_myPE
699466 1 73.4488 68.9691 88.104 0 -6.54325
717469 1 83.148 21.268 95.8729 0 -6.25705
725374 1 35.2805 81.8978 99.0791 0 -6.25392
726846 1 139.13 137.543 99.2572 0 -7.1162
733245 1 135.999 137.229 102.387 0 -6.6385
738199 1 115.031 81.8881 105.454 0 -6.25312
743702 1 60.935 46.9732 110.543 0 -7.59717
231864 1 64.0569 46.7792 110.62 0 -7.38428
750102 1 60.954 46.6696 113.793 0 -7.45397
259242 1 124.604 120.17 123.358 0 -6.25585
771311 1 89.3482 126.481 123.249 0 -6.91647
771391 1 89.7171 129.794 123.281 0 -6.75433
790424 1 69.1118 123.362 132.938 0 -6.25787
846756 1 105.359 69.1417 162.867 0 -7.21652
852995 1 102.215 62.8918 166.1 0 -7.35696
865876 1 102.216 65.908 169.118 0 -7.35729
385805 1 133.988 61.1205 185.54 0 -7.05901
891406 1 137.229 63.6223 184.112 0 -6.7812
897725 1 135.811 61.1179 187.358 0 -7.06929
193947 1 75.0305 70.7401 89.8757 0 -6.82967
718422 1 62.3977 57.9655 94.3027 0 -6.25875
214927 1 140.916 139.045 97.4707 0 -6.90644
219723 1 128.137 75.1653 102.63 0 -6.25353
231782 1 62.6338 48.4403 109.019 0 -7.22605
231862 1 59.1842 51.5694 109.083 0 -7.04518
238102 1 59.2044 45.146 112.059 0 -7.11585
764284 1 132.577 103.865 118.568 0 -6.2546
265792 1 91.2137 128.028 125.031 0 -7.0444
283797 1 108.993 75.1585 134.503 0 -6.25075
315721 1 123.003 75.1577 148.541 0 -6.24898
341076 1 103.893 64.3746 164.405 0 -8.00349
353796 1 103.89 64.4109 167.597 0 -7.88915
347476 1 105.765 65.7655 166.246 0 -7.75602
347555 1 103.896 67.6063 167.639 0 -8.01062
367717 1 108.998 109 175.989 0 -6.25501
