ITEM: TIMESTEP
76323
ITEM: NUMBER OF ATOMS
39
ITEM: BOX BOUNDS pp pp pp
0 240
0 240
0 240
ITEM: ATOMS id type x y z c_myKE c_myPE
669493 1 161.64 150.118 72.298 0 -6.25473
694512 1 92.7046 126.554 83.1174 0 -6.2618
733395 1 102.268 140.525 101.011 0 -6.26961
727636 1 107.425 169.216 101.018 0 -7.06906
739150 1 83.186 120.087 105.498 0 -7.75255
233708 1 78.6537 124.724 104.158 0 -8.42818
732908 1 81.7251 124.746 104.117 0 -8.28983
227387 1 78.5958 124.724 107.27 0 -8.74623
233710 1 81.7538 127.958 107.269 0 -7.88633
246425 1 75.5428 124.629 110.547 0 -8.20363
752187 1 78.5677 127.716 110.626 0 -8.04319
746267 1 77.0566 147.271 111.607 0 -7.08294
758931 1 155.224 140.546 115.032 0 -6.99873
752667 1 78.8739 147.261 113.433 0 -7.05533
240747 1 77.0634 149.092 113.43 0 -7.06219
253172 1 156.741 136.144 116.853 0 -6.73358
765330 1 151.845 140.51 118.306 0 -6.734
765171 1 153.362 136.107 120.127 0 -6.99768
284908 1 78.7096 121.347 134.214 0 -6.27201
810121 1 123.361 142.487 142.484 0 -6.25416
668523 1 126.199 110.246 68.7671 0 -6.25455
214496 1 40.0629 126.197 97.4544 0 -6.25237
220271 1 87.9337 99.3952 100.654 0 -6.27042
215637 1 109.155 167.631 99.6087 0 -7.40123
220988 1 83.4374 123.173 102.577 0 -7.39918
221213 1 29.2375 135.766 102.609 0 -6.25724
221957 1 108.811 164.32 102.406 0 -7.24415
222036 1 106.013 167.633 102.748 0 -7.39685
227147 1 77.1065 123.078 105.679 0 -8.44465
227309 1 80.2193 126.301 105.758 0 -8.69308
739468 1 83.434 126.256 105.754 0 -8.14214
739227 1 76.9308 119.918 108.828 0 -7.91196
240026 1 73.8382 123.113 108.847 0 -7.69494
752027 1 76.974 123.115 108.804 0 -8.59824
752025 1 77.0454 126.266 108.858 0 -8.42606
745787 1 80.2039 126.291 108.885 0 -8.53467
240347 1 76.9234 129.592 112.194 0 -6.67215
290607 1 138.974 94.2853 137.699 0 -6.25517
310435 1 100.699 121.764 145.356 0 -6.25941
