ITEM: TIMESTEP
80246
ITEM: NUMBER OF ATOMS
41
ITEM: BOX BOUNDS pp pp pp
0 240
0 240
0 240
ITEM: ATOMS id type x y z
98218 1 171.75 81.75 45.75
103190 1 207.75 27.75 48.75
104538 1 171.75 78.75 48.75
104619 1 174.75 81.75 48.75
156460 1 177.75 105.75 72.75
163317 1 108.75 123.75 75.75
168459 1 174.75 75.75 78.75
168540 1 177.75 78.75 78.75
174939 1 174.75 78.75 81.75
175082 1 123.75 84.75 81.75
194525 1 132.75 93.75 90.75
201093 1 156.75 99.75 93.75
207413 1 156.75 96.75 96.75
207492 1 153.75 99.75 96.75
207575 1 162.75 102.75 96.75
207654 1 159.75 105.75 96.75
213972 1 153.75 102.75 99.75
213974 1 159.75 102.75 99.75
214053 1 156.75 105.75 99.75
220129 1 144.75 93.75 102.75
220294 1 159.75 99.75 102.75
220373 1 156.75 102.75 102.75
226528 1 141.75 93.75 105.75
226609 1 144.75 96.75 105.75
227485 1 132.75 129.75 105.75
285485 1 132.75 144.75 132.75
674058 1 173.25 77.25 77.25
674706 1 197.25 101.25 77.25
674856 1 167.25 107.25 77.25
681176 1 167.25 104.25 80.25
694775 1 164.25 134.25 86.25
707026 1 197.25 113.25 92.25
718633 1 218.25 68.25 98.25
725812 1 155.25 98.25 101.25
732128 1 143.25 95.25 104.25
732129 1 146.25 95.25 104.25
738528 1 143.25 95.25 107.25
738608 1 143.25 98.25 107.25
739484 1 131.25 131.25 107.25
745885 1 134.25 131.25 110.25
783092 1 155.25 86.25 128.25
