ITEM: TIMESTEP
80000
ITEM: NUMBER OF ATOMS
40
ITEM: BOX BOUNDS pp pp pp
0 240
0 240
0 240
ITEM: ATOMS id type x y z
136154 1 219.75 63.75 63.75
174786 1 195.75 72.75 81.75
175181 1 180.75 87.75 81.75
187980 1 177.75 87.75 87.75
188124 1 129.75 93.75 87.75
200545 1 192.75 78.75 93.75
208039 1 114.75 120.75 96.75
214036 1 105.75 105.75 99.75
220520 1 117.75 108.75 102.75
226758 1 111.75 102.75 105.75
233240 1 117.75 105.75 108.75
239321 1 120.75 93.75 111.75
245803 1 126.75 96.75 114.75
246276 1 105.75 114.75 114.75
252041 1 120.75 90.75 117.75
252441 1 120.75 105.75 117.75
622792 1 215.25 74.25 53.25
642396 1 227.25 89.25 62.25
655193 1 218.25 89.25 68.25
661641 1 122.25 92.25 71.25
661803 1 128.25 98.25 71.25
681164 1 131.25 104.25 80.25
686942 1 185.25 80.25 83.25
693425 1 194.25 83.25 86.25
699744 1 191.25 80.25 89.25
713080 1 119.25 101.25 95.25
713174 1 161.25 104.25 95.25
719004 1 131.25 83.25 98.25
719005 1 134.25 83.25 98.25
732041 1 122.25 92.25 104.25
732434 1 101.25 107.25 104.25
745326 1 137.25 110.25 110.25
745808 1 143.25 128.25 110.25
751403 1 128.25 98.25 113.25
751637 1 110.25 107.25 113.25
758043 1 128.25 107.25 116.25
758205 1 134.25 113.25 116.25
758206 1 137.25 113.25 116.25
764433 1 98.25 107.25 119.25
770927 1 140.25 110.25 122.25
