ITEM: TIMESTEP
80000
ITEM: NUMBER OF ATOMS
40
ITEM: BOX BOUNDS pp pp pp
0 240
0 240
0 240
ITEM: ATOMS id type x y z c_myKE c_myPE
98219 1 175.904 78.2822 40.7718 0.640703 -6.35371
615190 1 214.066 22.7121 45.0298 0.0552215 -6.37435
156380 1 180.593 104.196 69.1746 0.289958 -5.79014
163316 1 107.16 123.535 73.7992 0.34868 -5.36181
686938 1 178.868 76.7453 76.7973 0.137675 -7.42809
175657 1 172.079 104.326 76.6523 0.111556 -7.0864
680539 1 178.89 75.1401 79.5153 0.329663 -6.97659
700125 1 133.995 91.446 88.1955 0.143002 -6.70326
201013 1 158.251 97.7735 91.3688 0.283708 -7.31329
713093 1 161.551 101.197 91.757 0.037165 -7.12155
712932 1 158.382 94.4774 94.7323 0.198766 -7.32652
713174 1 165.04 102.734 94.3833 0.122296 -7.79803
719573 1 161.504 104.905 96.0307 0.157127 -7.40959
220293 1 161.694 101.259 99.8744 0.117319 -7.3618
725893 1 161.633 102.883 97.9804 0.105925 -8.00126
220452 1 157.99 104.799 99.4244 0.254191 -7.33229
220048 1 147.12 91.4543 102.428 0.0669164 -7.15552
732054 1 162.817 97.8154 102.078 0.0615807 -7.16417
220372 1 158.271 102.93 101.355 0.0462297 -7.19194
732128 1 143.701 91.5267 105.393 0.195718 -7.13027
226609 1 150.207 91.4216 105.211 0.19261 -7.58611
233009 1 147.187 94.7432 105.44 0.376126 -7.80107
233886 1 134.241 130.865 105.654 0.0529119 -7.13032
739565 1 134.287 134.712 107.563 0.0956197 -6.97516
791005 1 134.114 145.74 132.778 0.0742509 -6.73038
104619 1 177.587 78.6281 43.1082 0.097349 -6.8758
162707 1 202.812 99.3488 73.8037 0.0539143 -6.58682
168540 1 180.892 75.4352 77.7999 0.233432 -6.71941
687577 1 170.671 102.468 78.4908 0.125092 -6.54987
175081 1 123.372 83.4974 80.1602 0.211318 -6.4744
189256 1 167.72 135.706 84.9603 0.0875201 -6.3002
195027 1 202.789 112.359 90.5054 0.103507 -6.61
214051 1 154.996 97.4498 94.6319 0.305476 -7.51426
206633 1 224.032 64.5708 96.4702 0.308039 -6.85867
732131 1 156.826 96.1754 99.6208 0.0321753 -6.39457
239568 1 145.41 93.1466 104.046 0.0380051 -8.27129
738687 1 145.677 93.3133 106.984 0.271417 -7.50262
751487 1 145.499 96.3964 107.342 0.140122 -7.18292
240445 1 134.016 133.106 109.55 0.211659 -6.77722
271092 1 157.498 83.5347 128.111 0.124823 -6.64652
