ITEM: TIMESTEP
75279
ITEM: NUMBER OF ATOMS
45
ITEM: BOX BOUNDS pp pp pp
0 240
0 240
0 240
ITEM: ATOMS id type x y z c_myKE c_myPE
643086 1 137.686 116.654 57.418 0 -7.06348
648829 1 85.0811 91.4525 60.8086 0 -6.25534
649485 1 136.263 114.158 60.6584 0 -6.79454
137487 1 139.509 116.654 59.2386 0 -7.06997
675089 1 148.998 115.185 73.7173 0 -6.54138
732502 1 60.5966 108.824 102.2 0 -6.33115
733711 1 89.5159 158.444 102.276 0 -6.25498
252262 1 57.77 97.7421 115.147 0 -8.1343
757944 1 64.0166 104.065 115.14 0 -8.4463
752607 1 140.628 142.312 113.575 0 -7.52806
764261 1 56.1733 99.2674 116.851 0 -8.27011
258741 1 54.529 100.927 118.389 0 -7.98967
252261 1 57.7254 100.886 118.38 0 -8.6514
252423 1 59.4309 105.578 116.798 0 -8.4492
258903 1 62.5649 105.556 116.861 0 -8.45094
765326 1 139.25 140.492 118.255 0 -8.09906
259888 1 142.391 143.683 118.376 0 -7.8315
764341 1 56.2501 102.364 120.11 0 -8.11364
795790 1 88.3221 81.8489 134.205 0 -6.25738
821219 1 51.1141 75.5075 146.933 0 -6.83395
163089 1 147.415 113.414 71.9488 0 -6.82775
213654 1 161.291 87.9127 97.4791 0 -6.25422
757781 1 57.8352 97.5186 112.204 0 -7.4214
245942 1 57.8871 100.636 112.191 0 -8.22609
246022 1 61.1657 103.906 112.113 0 -8.2842
245944 1 65.4458 102.487 113.43 0 -7.52836
252182 1 59.3054 99.3338 116.77 0 -8.74418
757782 1 60.9406 100.869 115.285 0 -8.46618
252342 1 57.9087 103.926 115.272 0 -8.77644
757943 1 60.9865 103.988 115.252 0 -8.75925
252504 1 65.4923 105.787 116.74 0 -7.5338
253405 1 137.507 142.263 116.778 0 -7.58228
247007 1 142.124 140.925 115.383 0 -8.41734
765407 1 140.976 145.321 116.688 0 -7.87001
759007 1 143.949 145.541 116.798 0 -7.10398
777062 1 57.8414 104.04 118.449 0 -8.35235
770742 1 60.9862 107.073 118.561 0 -7.61361
765246 1 140.721 142.223 120.021 0 -7.52261
265867 1 77.0174 131.237 121.879 0 -6.54985
259548 1 80.272 134.496 121.755 0 -6.82386
771797 1 110.097 145.202 125.331 0 -6.76623
272597 1 108.685 141.951 127.836 0 -7.07188
784516 1 106.86 143.767 127.83 0 -7.0484
284926 1 135.776 123.014 134.52 0 -6.25647
309298 1 48.5234 75.1286 147.311 0 -6.8306
