ITEM: TIMESTEP
78000
ITEM: NUMBER OF ATOMS
36
ITEM: BOX BOUNDS pp pp pp
0 240
0 240
0 240
ITEM: ATOMS id type x y z c_myKE c_myPE
656517 1 110.496 142.847 64.2096 0.329673 -6.04302
719568 1 145.782 102.418 95.9016 0.0510507 -6.9574
720768 1 145.675 153.378 96.309 0.160035 -6.76133
714692 1 158.099 163.162 94.7723 0.0877473 -7.41989
202853 1 158.235 166.228 94.7368 0.0913077 -7.48269
732842 1 123.428 121.627 104.248 0.0345699 -7.26071
227400 1 120.49 124.72 104.371 0.106607 -7.65273
233721 1 120.085 121.542 107.602 0.0701129 -7.87359
739242 1 124.583 123.457 108.839 0.442819 -6.74541
239798 1 116.988 111.989 110.577 0.0161211 -6.2015
757966 1 137.335 102.443 114.949 0.0970656 -6.49649
758105 1 72.466 110.671 114.979 0.0195927 -6.8324
271621 1 54.3199 105.414 127.81 0.181774 -6.66926
803804 1 132.883 142.817 139.277 0.155834 -6.27541
876039 1 115.15 219.209 174.396 0.226235 -6.68012
97710 1 86.7083 59.1893 40.1673 0.24183 -7.1923
644041 1 118.555 157.284 58.9381 0.00500079 -6.27598
637810 1 150.474 161.256 57.8734 0.362379 -6.66529
176187 1 75.3902 126.156 78.1776 0.0444603 -7.35693
182588 1 78.638 126.232 81.6557 0.0623431 -6.00915
184697 1 170.77 211.227 81.4523 0.102144 -6.90376
201169 1 147.144 100.728 91.0497 0.12738 -6.76243
201248 1 144.467 103.821 91.2296 0.180679 -7.23443
713087 1 144.2 100.821 94.4041 0.142447 -7.19401
208770 1 150.236 148.507 94.5628 0.0439273 -6.53024
708453 1 160.185 167.587 93.4426 0.376424 -6.23836
727412 1 156.808 164.511 96.5503 0.0952314 -6.46157
725733 1 160.087 91.1104 100.323 0.232812 -7.18555
745561 1 121.568 116.891 105.764 0.0712448 -7.71439
739161 1 119.874 118.643 107.289 0.116591 -8.45813
227321 1 121.575 120.011 105.929 0.271654 -8.05637
227401 1 125.027 123.161 105.771 0.143815 -7.45263
227715 1 102.572 140.455 105.812 0.187922 -6.25891
227079 1 118.365 116.611 108.886 0.358504 -6.48493
751405 1 135.804 99.0584 112.414 0.22714 -6.55432
279638 1 112.233 167.701 131.153 0.101359 -6.47398
