ITEM: TIMESTEP
76306
ITEM: NUMBER OF ATOMS
26
ITEM: BOX BOUNDS pp pp pp
0 240
0 240
0 240
ITEM: ATOMS id type x y z
168846 1 135.75 90.75 78.75
194771 1 150.75 102.75 90.75
194852 1 153.75 105.75 90.75
201170 1 147.75 102.75 93.75
201251 1 150.75 105.75 93.75
207650 1 147.75 105.75 96.75
282525 1 132.75 33.75 132.75
283725 1 132.75 78.75 132.75
283726 1 135.75 78.75 132.75
283805 1 132.75 81.75 132.75
309395 1 102.75 81.75 144.75
310135 1 162.75 108.75 144.75
321804 1 129.75 66.75 150.75
335793 1 96.75 111.75 156.75
335870 1 87.75 114.75 156.75
335954 1 99.75 117.75 156.75
342190 1 87.75 111.75 159.75
342269 1 84.75 114.75 159.75
713250 1 149.25 107.25 95.25
758053 1 158.25 107.25 116.25
769957 1 110.25 74.25 122.25
795645 1 134.25 77.25 134.25
795725 1 134.25 80.25 134.25
841474 1 101.25 116.25 155.25
854109 1 86.25 110.25 161.25
859556 1 107.25 74.25 164.25
