ITEM: TIMESTEP
77000
ITEM: NUMBER OF ATOMS
37
ITEM: BOX BOUNDS pp pp pp
0 240
0 240
0 240
ITEM: ATOMS id type x y z
182028 1 81.75 105.75 84.75
214437 1 108.75 120.75 99.75
220758 1 111.75 117.75 102.75
233637 1 108.75 120.75 108.75
239794 1 99.75 111.75 111.75
240106 1 75.75 123.75 111.75
246192 1 93.75 111.75 114.75
246515 1 102.75 123.75 114.75
252832 1 93.75 120.75 117.75
259160 1 117.75 117.75 120.75
265556 1 105.75 117.75 123.75
266285 1 132.75 144.75 123.75
271888 1 141.75 114.75 126.75
278612 1 153.75 126.75 129.75
291173 1 156.75 117.75 135.75
310112 1 93.75 108.75 144.75
662110 1 89.25 110.25 71.25
732911 1 92.25 125.25 104.25
745468 1 83.25 116.25 110.25
745635 1 104.25 122.25 110.25
758354 1 101.25 119.25 116.25
764451 1 152.25 107.25 119.25
764851 1 152.25 122.25 119.25
764992 1 95.25 128.25 119.25
771492 1 155.25 131.25 122.25
777470 1 89.25 116.25 125.25
777636 1 107.25 122.25 125.25
777965 1 134.25 134.25 125.25
783631 1 92.25 107.25 128.25
783952 1 95.25 119.25 128.25
790192 1 95.25 113.25 131.25
790292 1 155.25 116.25 131.25
790347 1 80.25 119.25 131.25
797326 1 137.25 140.25 134.25
803071 1 92.25 116.25 137.25
803073 1 98.25 116.25 137.25
809413 1 158.25 113.25 140.25
