ITEM: TIMESTEP
75222
ITEM: NUMBER OF ATOMS
40
ITEM: BOX BOUNDS pp pp pp
0 240
0 240
0 240
ITEM: ATOMS id type x y z
169876 1 105.75 129.75 78.75
169964 1 129.75 132.75 78.75
182057 1 168.75 105.75 84.75
182517 1 108.75 123.75 84.75
188291 1 150.75 99.75 87.75
188999 1 114.75 126.75 87.75
194529 1 144.75 93.75 90.75
194697 1 168.75 99.75 90.75
195801 1 120.75 141.75 90.75
207741 1 180.75 108.75 96.75
214443 1 126.75 120.75 99.75
214843 1 126.75 135.75 99.75
220596 1 105.75 111.75 102.75
228286 1 135.75 159.75 105.75
234360 1 117.75 147.75 108.75
245657 1 168.75 90.75 114.75
247319 1 114.75 153.75 114.75
297406 1 135.75 111.75 138.75
681093 1 158.25 101.25 80.25
688119 1 116.25 125.25 83.25
694435 1 104.25 122.25 86.25
694436 1 107.25 122.25 86.25
701159 1 116.25 134.25 89.25
713642 1 125.25 122.25 95.25
714365 1 134.25 149.25 95.25
719324 1 131.25 95.25 98.25
719330 1 149.25 95.25 98.25
719559 1 116.25 104.25 98.25
719660 1 179.25 107.25 98.25
725972 1 155.25 104.25 101.25
725981 1 182.25 104.25 101.25
726764 1 131.25 134.25 101.25
732218 1 173.25 98.25 104.25
732519 1 116.25 110.25 104.25
733789 1 86.25 158.25 104.25
739883 1 128.25 146.25 107.25
745183 1 188.25 104.25 110.25
746274 1 101.25 146.25 110.25
751484 1 131.25 101.25 113.25
821965 1 134.25 104.25 146.25
