ITEM: TIMESTEP
80248
ITEM: NUMBER OF ATOMS
49
ITEM: BOX BOUNDS pp pp pp
0 240
0 240
0 240
ITEM: ATOMS id type x y z
170660 1 57.75 159.75 78.75
245485 1 132.75 84.75 114.75
264928 1 141.75 93.75 123.75
271329 1 144.75 93.75 126.75
282995 1 102.75 51.75 132.75
292042 1 123.75 150.75 135.75
298363 1 126.75 147.75 138.75
303382 1 63.75 96.75 141.75
303461 1 60.75 99.75 141.75
309781 1 60.75 96.75 144.75
309866 1 75.75 99.75 144.75
328822 1 63.75 90.75 153.75
335223 1 66.75 90.75 156.75
360293 1 156.75 69.75 168.75
361325 1 132.75 108.75 168.75
361405 1 132.75 111.75 168.75
367067 1 78.75 84.75 171.75
367735 1 162.75 108.75 171.75
367814 1 159.75 111.75 171.75
373547 1 78.75 87.75 174.75
373966 1 135.75 102.75 174.75
379628 1 81.75 75.75 177.75
381176 1 165.75 132.75 177.75
418858 1 171.75 105.75 195.75
418859 1 174.75 105.75 195.75
425339 1 174.75 108.75 198.75
712515 1 104.25 80.25 95.25
744684 1 131.25 86.25 110.25
751004 1 131.25 83.25 113.25
751085 1 134.25 86.25 113.25
764510 1 89.25 110.25 119.25
776847 1 140.25 92.25 125.25
783248 1 143.25 92.25 128.25
803961 1 122.25 149.25 137.25
803962 1 125.25 149.25 137.25
808980 1 59.25 98.25 140.25
810362 1 125.25 149.25 140.25
815465 1 74.25 101.25 143.25
846746 1 77.25 74.25 158.25
866924 1 131.25 110.25 167.25
873245 1 134.25 107.25 170.25
873246 1 137.25 107.25 170.25
878828 1 83.25 77.25 173.25
879645 1 134.25 107.25 173.25
885227 1 80.25 77.25 176.25
885229 1 86.25 77.25 176.25
885308 1 83.25 80.25 176.25
923096 1 167.25 56.25 194.25
930778 1 173.25 104.25 197.25
