ITEM: TIMESTEP
78139
ITEM: NUMBER OF ATOMS
29
ITEM: BOX BOUNDS pp pp pp
0 240
0 240
0 240
ITEM: ATOMS id type x y z
226997 1 108.75 111.75 105.75
252672 1 93.75 114.75 117.75
252673 1 96.75 114.75 117.75
258911 1 90.75 108.75 120.75
259073 1 96.75 114.75 120.75
259553 1 96.75 132.75 120.75
265472 1 93.75 114.75 123.75
278274 1 99.75 114.75 129.75
278431 1 90.75 120.75 129.75
284032 1 93.75 90.75 132.75
284346 1 75.75 102.75 132.75
284592 1 93.75 111.75 132.75
284753 1 96.75 117.75 132.75
284833 1 96.75 120.75 132.75
758032 1 95.25 107.25 116.25
764593 1 98.25 113.25 119.25
764673 1 98.25 116.25 119.25
764751 1 92.25 119.25 119.25
770912 1 95.25 110.25 122.25
771312 1 95.25 125.25 122.25
777473 1 98.25 116.25 125.25
777791 1 92.25 128.25 125.25
777874 1 101.25 131.25 125.25
790349 1 86.25 119.25 131.25
790597 1 110.25 128.25 131.25
790752 1 95.25 134.25 131.25
796832 1 95.25 122.25 134.25
803393 1 98.25 128.25 137.25
809710 1 89.25 125.25 140.25
