ITEM: TIMESTEP
111332
ITEM: NUMBER OF ATOMS
61
ITEM: BOX BOUNDS pp pp pp
0 240
0 240
0 240
ITEM: ATOMS id type x y z c_myKE c_myPE
245634 1 97.9447 86.4772 113.646 0 -6.53997
757879 1 119.672 102.103 115.233 0 -7.85089
246039 1 117.33 105.445 113.833 0 -6.63452
758194 1 98.9623 113.635 116.834 0 -6.54302
802987 1 76.8499 113.888 139.233 0 -6.57472
809307 1 76.8511 110.52 142.6 0 -6.57141
809386 1 73.541 113.843 142.558 0 -7.5235
847324 1 132.924 94.6539 161.684 0 -6.25834
899975 1 166.078 152.06 185.255 0 -6.82365
393242 1 129.912 107.339 187.161 0 -6.4083
906295 1 165.95 148.803 188.512 0 -6.55108
918039 1 120.039 105.526 196.814 0 -7.48785
924522 1 124.647 104.294 198.016 0 -7.66141
931001 1 124.762 110.594 201.396 0 -8.38424
937321 1 121.495 107.325 204.426 0 -8.67288
924760 1 124.716 110.524 204.503 0 -8.78763
931081 1 124.78 113.677 204.564 0 -8.43312
438042 1 118.392 107.263 207.677 0 -8.36403
937242 1 121.578 110.471 207.682 0 -8.84538
444443 1 118.356 107.295 210.728 0 -8.39801
963081 1 118.413 110.427 210.864 0 -8.76944
431802 1 121.566 110.48 210.779 0 -8.84528
438202 1 121.594 113.599 210.849 0 -8.83332
950283 1 124.668 116.922 210.807 0 -8.3045
444681 1 118.389 110.495 214.007 0 -8.36656
963082 1 121.58 113.636 213.95 0 -8.77414
457483 1 121.655 116.787 213.951 0 -8.37079
445560 1 114.941 143.826 213.959 0 -6.29165
450922 1 118.275 113.627 217.032 0 -7.57149
969480 1 121.56 116.96 216.954 0 -7.54498
977409 1 146.932 175.657 223.513 0 -6.25965
982863 1 193.543 139.314 226.71 0 -6.25557
1020680 1 119.822 115.39 3.76713 0 -6.25604
251874 1 97.3746 83.3207 116.811 0 -6.54289
757880 1 121.572 100.372 115.157 0 -7.31428
259154 1 99.5407 116.799 119.997 0 -6.54223
392679 1 116.643 81.5594 186.846 0 -6.26132
393719 1 118.442 123.206 186.844 0 -6.71939
899318 1 115.233 126.406 186.611 0 -6.59216
911482 1 123.069 102.805 196.401 0 -7.43361
924442 1 123.26 105.963 199.644 0 -8.26102
418922 1 123.15 108.944 199.877 0 -8.27834
930921 1 123.164 105.802 202.728 0 -8.44635
431801 1 123.144 108.937 202.955 0 -8.79645
419082 1 126.371 112.095 202.975 0 -8.0319
930841 1 119.972 105.694 206.073 0 -8.04731
937399 1 118.427 110.388 204.72 0 -8.79719
431721 1 123.125 108.916 206.04 0 -8.83687
425481 1 123.167 112.076 206.126 0 -8.82491
431881 1 121.583 116.705 204.74 0 -8.5224
438121 1 119.98 108.878 209.229 0 -8.81875
950053 1 161.361 109.017 209.175 0 -6.26316
950042 1 123.168 112.081 209.208 0 -8.84353
937401 1 123.188 115.211 209.296 0 -8.78193
425401 1 126.317 115.305 209.279 0 -8.03846
450839 1 116.721 108.913 212.353 0 -8.11004
451001 1 120.002 112.015 212.412 0 -8.81266
956761 1 123.191 115.161 212.392 0 -8.51258
451162 1 120.038 112.083 215.539 0 -8.47241
444841 1 120.006 115.226 215.505 0 -8.46585
465008 1 144.095 160.036 223.875 0 -6.26068
