ITEM: TIMESTEP
83000
ITEM: NUMBER OF ATOMS
45
ITEM: BOX BOUNDS pp pp pp
0 240
0 240
0 240
ITEM: ATOMS id type x y z
165229 1 84.75 195.75 75.75
171629 1 84.75 195.75 78.75
171709 1 84.75 198.75 78.75
171950 1 87.75 207.75 78.75
178671 1 90.75 219.75 81.75
184510 1 87.75 198.75 84.75
184592 1 93.75 201.75 84.75
190832 1 93.75 195.75 87.75
197153 1 96.75 192.75 90.75
197236 1 105.75 195.75 90.75
197474 1 99.75 204.75 90.75
203870 1 87.75 204.75 93.75
208276 1 105.75 129.75 96.75
208587 1 78.75 141.75 96.75
210590 1 87.75 216.75 96.75
229309 1 84.75 198.75 105.75
239079 1 114.75 84.75 111.75
239873 1 96.75 114.75 111.75
240194 1 99.75 126.75 111.75
246114 1 99.75 108.75 114.75
246273 1 96.75 114.75 114.75
252676 1 105.75 114.75 117.75
664590 1 89.25 203.25 71.25
690191 1 92.25 203.25 83.25
696989 1 86.25 218.25 86.25
702666 1 77.25 191.25 89.25
702667 1 80.25 191.25 89.25
702668 1 83.25 191.25 89.25
708909 1 86.25 185.25 92.25
709154 1 101.25 194.25 92.25
709230 1 89.25 197.25 92.25
709310 1 89.25 200.25 92.25
715632 1 95.25 197.25 95.25
721789 1 86.25 188.25 98.25
721871 1 92.25 191.25 98.25
722026 1 77.25 197.25 98.25
726196 1 107.25 113.25 101.25
732512 1 95.25 110.25 104.25
734913 1 98.25 200.25 104.25
738835 1 104.25 107.25 107.25
740909 1 86.25 185.25 107.25
745312 1 95.25 110.25 110.25
745553 1 98.25 119.25 110.25
745633 1 98.25 122.25 110.25
758195 1 104.25 113.25 116.25
