ITEM: TIMESTEP
77328
ITEM: NUMBER OF ATOMS
28
ITEM: BOX BOUNDS pp pp pp
0 240
0 240
0 240
ITEM: ATOMS id type x y z
188121 1 120.75 93.75 87.75
207482 1 123.75 99.75 96.75
207483 1 126.75 99.75 96.75
219797 1 108.75 81.75 102.75
226517 1 108.75 93.75 105.75
226678 1 111.75 99.75 105.75
252272 1 93.75 99.75 117.75
258670 1 87.75 99.75 120.75
258853 1 156.75 105.75 120.75
258919 1 114.75 108.75 120.75
264752 1 93.75 87.75 123.75
264992 1 93.75 96.75 123.75
265171 1 150.75 102.75 123.75
271637 1 108.75 105.75 126.75
284197 1 108.75 96.75 132.75
284518 1 111.75 108.75 132.75
297317 1 108.75 108.75 138.75
719322 1 125.25 95.25 98.25
744916 1 107.25 95.25 110.25
751160 1 119.25 89.25 113.25
757796 1 107.25 98.25 116.25
757957 1 110.25 104.25 116.25
764515 1 104.25 110.25 119.25
770511 1 92.25 95.25 122.25
777073 1 98.25 101.25 125.25
777156 1 107.25 104.25 125.25
809074 1 101.25 101.25 140.25
809154 1 101.25 104.25 140.25
