ITEM: TIMESTEP
77234
ITEM: NUMBER OF ATOMS
29
ITEM: BOX BOUNDS pp pp pp
0 240
0 240
0 240
ITEM: ATOMS id type x y z
214927 1 138.75 138.75 99.75
221073 1 96.75 129.75 102.75
246123 1 126.75 108.75 114.75
259004 1 129.75 111.75 120.75
265325 1 132.75 108.75 123.75
277878 1 111.75 99.75 129.75
290841 1 120.75 105.75 135.75
296924 1 129.75 93.75 138.75
303395 1 102.75 96.75 141.75
335245 1 132.75 90.75 156.75
726278 1 113.25 116.25 101.25
738513 1 98.25 95.25 107.25
738842 1 125.25 107.25 107.25
739405 1 134.25 128.25 107.25
745402 1 125.25 113.25 110.25
758123 1 128.25 110.25 116.25
758203 1 128.25 113.25 116.25
770916 1 107.25 110.25 122.25
771083 1 128.25 116.25 122.25
777319 1 116.25 110.25 125.25
777323 1 128.25 110.25 125.25
783645 1 134.25 107.25 128.25
790042 1 125.25 107.25 131.25
790115 1 104.25 110.25 131.25
790202 1 125.25 113.25 131.25
802205 1 134.25 83.25 137.25
809408 1 143.25 113.25 140.25
815397 1 110.25 98.25 143.25
828357 1 110.25 104.25 149.25
