ITEM: TIMESTEP
81000
ITEM: NUMBER OF ATOMS
33
ITEM: BOX BOUNDS pp pp pp
0 240
0 240
0 240
ITEM: ATOMS id type x y z
137157 1 108.75 102.75 63.75
162681 1 120.75 99.75 75.75
169570 1 147.75 117.75 78.75
176976 1 45.75 156.75 81.75
182841 1 120.75 135.75 84.75
189161 1 120.75 132.75 87.75
190355 1 102.75 177.75 87.75
201867 1 78.75 129.75 93.75
208187 1 78.75 126.75 96.75
247013 1 156.75 141.75 114.75
266754 1 99.75 162.75 123.75
272913 1 96.75 153.75 126.75
278988 1 81.75 141.75 129.75
317145 1 72.75 132.75 147.75
322583 1 66.75 96.75 150.75
329795 1 102.75 126.75 153.75
349790 1 87.75 156.75 162.75
394676 1 105.75 159.75 183.75
425956 1 105.75 132.75 198.75
432355 1 102.75 132.75 201.75
432356 1 105.75 132.75 201.75
694679 1 116.25 131.25 86.25
713241 1 122.25 107.25 95.25
738828 1 83.25 107.25 107.25
740907 1 80.25 185.25 107.25
746908 1 83.25 170.25 110.25
772274 1 101.25 161.25 122.25
778433 1 98.25 152.25 125.25
790297 1 170.25 116.25 131.25
861710 1 89.25 155.25 164.25
892744 1 71.25 119.25 179.25
900196 1 107.25 158.25 182.25
900276 1 107.25 161.25 182.25
