ITEM: TIMESTEP
79302
ITEM: NUMBER OF ATOMS
26
ITEM: BOX BOUNDS pp pp pp
0 240
0 240
0 240
ITEM: ATOMS id type x y z
105805 1 132.75 126.75 48.75
144360 1 117.75 132.75 66.75
150605 1 132.75 126.75 69.75
170116 1 105.75 138.75 78.75
176528 1 141.75 138.75 81.75
201315 1 102.75 108.75 93.75
207961 1 120.75 117.75 96.75
214117 1 108.75 108.75 99.75
221568 1 141.75 147.75 102.75
226925 1 132.75 108.75 105.75
228538 1 171.75 168.75 105.75
233810 1 147.75 126.75 108.75
246123 1 126.75 108.75 114.75
252838 1 111.75 120.75 117.75
253331 1 150.75 138.75 117.75
553724 1 131.25 125.25 20.25
566522 1 125.25 125.25 26.25
572927 1 140.25 125.25 29.25
688363 1 128.25 134.25 83.25
688529 1 146.25 140.25 83.25
688599 1 116.25 143.25 83.25
706756 1 107.25 104.25 92.25
706833 1 98.25 107.25 92.25
713074 1 101.25 101.25 95.25
726197 1 110.25 113.25 101.25
765169 1 146.25 134.25 119.25
