ITEM: TIMESTEP
82000
ITEM: NUMBER OF ATOMS
32
ITEM: BOX BOUNDS pp pp pp
0 240
0 240
0 240
ITEM: ATOMS id type x y z c_myKE c_myPE
649888 1 143.911 131.186 60.8958 0.102687 -6.98423
656289 1 145.847 129.917 62.6616 0.182157 -6.47592
669013 1 161.697 127.618 70.3169 0.210892 -7.42389
163491 1 158.786 130.634 69.0546 0.108039 -5.9262
163412 1 158.613 126.653 73.5532 0.0650402 -6.28632
163493 1 161.544 129.466 72.2727 0.0605706 -7.2899
175807 1 139.088 110.589 81.9736 0.121837 -7.59399
188686 1 139.206 113.689 81.8437 0.217464 -6.66937
700526 1 139.185 110.595 85.0626 0.192988 -6.70579
182287 1 139.179 113.491 85.0094 0.617017 -7.21669
699021 1 186.903 48.1692 88.2557 0.17764 -5.9253
712606 1 142.419 81.2456 92.3705 0.0491351 -7.49993
194286 1 138.796 85.0747 92.7054 0.0576542 -7.70764
218951 1 213.558 44.7048 97.7155 0.161602 -6.82104
788710 1 214.052 53.2315 132.755 0.041377 -6.88587
795112 1 222.432 51.6462 136.144 0.0692547 -6.40999
795109 1 211.203 53.1448 136.531 0.119991 -6.9572
808552 1 222.041 78.3803 142.727 0.0176155 -6.6985
809194 1 226.832 103.998 142.372 0.204914 -7.09733
815343 1 191.975 95.4031 145.644 0.0980517 -5.61992
815674 1 226.654 107.144 145.572 0.0520903 -6.22169
200608 1 142.436 83.306 90.3971 0.108728 -7.51183
202358 1 110.378 150.431 91.4098 0.701876 -6.66304
719036 1 233.221 80.1254 94.3739 0.143481 -6.46961
212470 1 214.345 42.1445 97.6358 0.205243 -6.59324
719086 1 138.985 81.5764 96.2875 0.173293 -7.44725
213569 1 145.39 84.5017 97.2946 0.078527 -7.23843
200847 1 143.84 86.6902 96.1919 0.0679025 -7.73566
214374 1 161.346 116.654 99.9544 0.172728 -7.36103
788634 1 225.125 51.2958 132.536 0.176085 -7.1863
283193 1 221.944 54.6877 132.725 0.201527 -8.00296
278199 1 113.329 110.403 131.468 0.208779 -7.18925
