ITEM: TIMESTEP
79291
ITEM: NUMBER OF ATOMS
26
ITEM: BOX BOUNDS pp pp pp
0 240
0 240
0 240
ITEM: ATOMS id type x y z
194913 1 96.75 108.75 90.75
201313 1 96.75 108.75 93.75
214274 1 99.75 114.75 99.75
226989 1 84.75 111.75 105.75
233546 1 75.75 117.75 108.75
290679 1 114.75 99.75 135.75
303952 1 93.75 117.75 141.75
316600 1 117.75 111.75 147.75
316606 1 135.75 111.75 147.75
329802 1 123.75 126.75 153.75
348118 1 111.75 93.75 162.75
354922 1 123.75 108.75 165.75
355326 1 135.75 123.75 165.75
355642 1 123.75 135.75 165.75
700511 1 92.25 110.25 89.25
713148 1 83.25 104.25 95.25
713310 1 89.25 110.25 95.25
713472 1 95.25 116.25 95.25
719551 1 92.25 104.25 98.25
738995 1 104.25 113.25 107.25
783635 1 104.25 107.25 128.25
841804 1 131.25 128.25 155.25
854203 1 128.25 113.25 161.25
860523 1 128.25 110.25 164.25
879875 1 104.25 116.25 173.25
886193 1 98.25 113.25 176.25
