ITEM: TIMESTEP
79291
ITEM: NUMBER OF ATOMS
26
ITEM: BOX BOUNDS pp pp pp
0 240
0 240
0 240
ITEM: ATOMS id type x y z c_myKE c_myPE
688189 1 85.1464 129.618 80.0844 0 -7.04304
233312 1 94.4435 108.496 108.873 0 -7.25443
738912 1 91.6444 111.806 108.534 0 -7.40225
233393 1 94.7863 111.803 111.669 0 -7.41593
785073 1 97.7428 164.748 127.704 0 -6.54763
273156 1 100.999 168.002 127.83 0 -6.82061
841798 1 116.796 118.084 156.696 0 -7.2779
868194 1 100.925 161.76 171.158 0 -6.54816
881076 1 105.515 162.775 175.747 0 -6.5476
881804 1 132.932 193.55 177.742 0 -6.82535
130656 1 40.0619 97.4895 56.049 0 -6.2543
176189 1 83.3635 128.071 78.2204 0 -6.91688
176269 1 83.3959 131.382 78.5889 0 -6.75452
246272 1 93.0545 113.392 110.264 0 -7.06749
315637 1 108.993 71.9692 150.498 0 -6.2544
828919 1 115.201 120.025 155.004 0 -7.07773
841640 1 118.588 122.775 154.919 0 -7.21711
336120 1 118.479 120.024 158.304 0 -7.0727
336280 1 115.307 122.989 158.181 0 -6.99148
368682 1 126.198 144.175 174.092 0 -6.91333
368683 1 128.133 145.293 176.064 0 -7.52158
368762 1 124.825 148.619 176.11 0 -6.57388
374054 1 163.14 105.93 179.129 0 -6.54722
376204 1 131.162 191.781 179.324 0 -6.54149
379567 1 138.948 68.7809 183.643 0 -6.25385
380455 1 166.396 105.806 182.384 0 -6.82126
