ITEM: TIMESTEP
79615
ITEM: NUMBER OF ATOMS
30
ITEM: BOX BOUNDS pp pp pp
0 240
0 240
0 240
ITEM: ATOMS id type x y z
207071 1 90.75 84.75 96.75
214036 1 105.75 105.75 99.75
232668 1 81.75 84.75 108.75
316202 1 123.75 96.75 147.75
322683 1 126.75 99.75 150.75
328277 1 108.75 69.75 153.75
354843 1 126.75 105.75 165.75
361164 1 129.75 102.75 168.75
361243 1 126.75 105.75 168.75
361244 1 129.75 105.75 168.75
372751 1 90.75 57.75 174.75
373965 1 132.75 102.75 174.75
417960 1 117.75 72.75 195.75
431166 1 135.75 87.75 201.75
436273 1 96.75 39.75 204.75
437645 1 132.75 90.75 204.75
437646 1 135.75 90.75 204.75
476377 1 168.75 102.75 222.75
699883 1 128.25 86.25 89.25
706846 1 137.25 107.25 92.25
828201 1 122.25 98.25 149.25
828202 1 125.25 98.25 149.25
828282 1 125.25 101.25 149.25
840196 1 107.25 68.25 155.25
846582 1 65.25 68.25 158.25
866763 1 128.25 104.25 167.25
873164 1 131.25 104.25 170.25
873243 1 128.25 107.25 170.25
929879 1 116.25 71.25 197.25
943165 1 134.25 89.25 203.25
