ITEM: TIMESTEP
76384
ITEM: NUMBER OF ATOMS
40
ITEM: BOX BOUNDS pp pp pp
0 240
0 240
0 240
ITEM: ATOMS id type x y z c_myKE c_myPE
700604 1 132.917 113.781 86.3349 0 -6.81672
707003 1 129.661 113.917 89.5851 0 -6.55127
210017 1 44.8493 203.108 94.6459 0 -6.25356
213882 1 127.858 95.7745 100.957 0 -6.55225
732202 1 123.271 94.7678 105.546 0 -6.55196
732585 1 70.3835 111.852 104.225 0 -6.82263
732666 1 73.6449 115.1 104.316 0 -6.52455
221632 1 92.6169 156.587 103.997 0 -6.86702
733713 1 95.914 156.605 104.503 0 -7.43522
222343 1 63.9914 178.832 104.218 0 -6.26102
741772 1 28.9022 225.436 105.458 0 -6.25358
733869 1 83.1415 162.758 107.264 0 -7.23089
746669 1 80.0591 166.18 110.601 0 -7.11862
752104 1 67.0572 126.46 113.713 0 -6.54417
758584 1 67.1723 129.712 116.974 0 -6.82223
786183 1 63.9885 207.542 127.79 0 -6.25451
840924 1 130.914 94.5579 158.234 0 -6.74526
840925 1 134.234 94.532 158.612 0 -6.90539
841328 1 143.609 108.642 158.461 0 -6.83428
138518 1 110.241 156.856 61.1443 0 -6.25217
164917 1 109.001 188.761 73.909 0 -6.25422
196993 1 94.2826 191.953 87.9117 0 -6.25363
221633 1 94.399 154.85 102.547 0 -7.07248
221884 1 131.45 163.16 102.544 0 -6.55539
234433 1 97.6641 158.26 105.956 0 -6.84342
746668 1 81.5509 164.458 105.777 0 -7.34849
228364 1 131.309 166.414 105.797 0 -6.8195
234522 1 123.011 156.865 108.993 0 -6.255
240994 1 97.5091 161.412 109.105 0 -6.52082
234588 1 78.3047 164.651 108.834 0 -7.41809
247469 1 80.1694 163.45 110.312 0 -7.51035
757810 1 151.71 96.2502 118.567 0 -6.25509
259809 1 147.273 142.153 119.816 0 -6.25469
267392 1 93.0468 190.007 123.008 0 -6.25132
277641 1 121.758 87.9189 129.396 0 -6.25528
317793 1 94.1724 158.181 150.396 0 -6.54622
330432 1 93.1595 153.589 154.989 0 -6.54654
329005 1 132.677 96.3128 156.738 0 -7.03553
329408 1 142.032 110.416 156.693 0 -6.53784
335800 1 118.53 110.282 160.092 0 -6.27098
