ITEM: TIMESTEP
78000
ITEM: NUMBER OF ATOMS
20
ITEM: BOX BOUNDS pp pp pp
0 240
0 240
0 240
ITEM: ATOMS id type x y z
271476 1 105.75 99.75 126.75
271712 1 93.75 108.75 126.75
290914 1 99.75 108.75 135.75
291471 1 90.75 129.75 135.75
322680 1 117.75 99.75 150.75
700110 1 89.25 95.25 89.25
712832 1 95.25 92.25 95.25
745152 1 95.25 104.25 110.25
751157 1 110.25 89.25 113.25
757782 1 65.25 98.25 116.25
790991 1 92.25 143.25 131.25
796190 1 89.25 98.25 134.25
796511 1 92.25 110.25 134.25
809232 1 95.25 107.25 140.25
815869 1 86.25 116.25 143.25
821870 1 89.25 101.25 146.25
822032 1 95.25 107.25 146.25
822751 1 92.25 134.25 146.25
828589 1 86.25 113.25 149.25
835151 1 92.25 119.25 152.25
