ITEM: TIMESTEP
77289
ITEM: NUMBER OF ATOMS
28
ITEM: BOX BOUNDS pp pp pp
0 240
0 240
0 240
ITEM: ATOMS id type x y z c_myKE c_myPE
699881 1 123.046 86.1077 86.6038 0 -7.07978
706361 1 121.224 87.9303 86.618 0 -7.06924
201708 1 81.6446 124.712 89.6835 0 -7.0129
707389 1 84.9752 128.035 89.6836 0 -7.0132
708126 1 137.358 158.444 89.5168 0 -6.25484
713788 1 81.905 127.78 92.659 0 -7.06292
714742 1 62.7499 168.02 92.7026 0 -6.25205
225564 1 130.982 51.2289 102.262 0 -6.25553
770839 1 118.394 104.379 123.374 0 -7.25427
770838 1 114.857 107.227 123.224 0 -7.5657
777159 1 115.009 104.231 126.574 0 -7.08109
815559 1 115.008 104.224 143.766 0 -6.26502
194216 1 169.623 78.3434 87.9143 0 -6.25419
195389 1 83.2934 126.39 87.761 0 -7.24554
213642 1 124.861 86.7744 96.1265 0 -6.30504
213491 1 151.737 81.5342 99.4327 0 -6.25507
732367 1 142.173 103.867 99.4269 0 -6.25234
737806 1 137.717 64.3223 103.841 0 -6.25698
732680 1 118.49 109.099 105.683 0 -6.5744
744910 1 89.8626 93.0506 110.238 0 -6.25343
732281 1 118.547 105.78 109.004 0 -6.56157
739000 1 121.811 109.063 109.012 0 -7.56185
240189 1 80.2992 126.196 113.435 0 -6.27367
765641 1 118.559 151.729 116.639 0 -6.82244
259079 1 113.519 105.698 118.706 0 -6.56493
259959 1 115.304 151.608 119.895 0 -6.54612
764440 1 119.803 105.886 121.624 0 -7.06486
764518 1 116.91 109.03 121.789 0 -6.98856
