ITEM: TIMESTEP
80000
ITEM: NUMBER OF ATOMS
23
ITEM: BOX BOUNDS pp pp pp
0 240
0 240
0 240
ITEM: ATOMS id type x y z
169233 1 96.75 105.75 78.75
195639 1 114.75 135.75 90.75
202197 1 108.75 141.75 93.75
221232 1 93.75 135.75 102.75
227075 1 102.75 114.75 105.75
234433 1 96.75 150.75 108.75
246375 1 162.75 117.75 114.75
246433 1 96.75 120.75 114.75
246457 1 168.75 120.75 114.75
246593 1 96.75 126.75 114.75
252781 1 180.75 117.75 117.75
252833 1 96.75 120.75 117.75
259718 1 111.75 138.75 120.75
265953 1 96.75 132.75 123.75
713718 1 113.25 125.25 95.25
720197 1 110.25 128.25 98.25
751572 1 155.25 104.25 113.25
758213 1 158.25 113.25 116.25
758352 1 95.25 119.25 116.25
771478 1 113.25 131.25 122.25
771719 1 116.25 140.25 122.25
784035 1 104.25 122.25 128.25
790749 1 86.25 134.25 131.25
