ITEM: TIMESTEP
77000
ITEM: NUMBER OF ATOMS
43
ITEM: BOX BOUNDS pp pp pp
0 240
0 240
0 240
ITEM: ATOMS id type x y z
169152 1 93.75 102.75 78.75
193943 1 66.75 72.75 90.75
208036 1 105.75 120.75 96.75
258521 1 120.75 93.75 120.75
258600 1 117.75 96.75 120.75
258679 1 114.75 99.75 120.75
264999 1 114.75 96.75 123.75
265079 1 114.75 99.75 123.75
271319 1 114.75 93.75 126.75
271398 1 111.75 96.75 126.75
271478 1 111.75 99.75 126.75
271558 1 111.75 102.75 126.75
271637 1 108.75 105.75 126.75
277877 1 108.75 99.75 129.75
277957 1 108.75 102.75 129.75
307877 1 108.75 24.75 144.75
341152 1 93.75 72.75 159.75
399724 1 129.75 108.75 186.75
424595 1 102.75 81.75 198.75
430915 1 102.75 78.75 201.75
727157 1 110.25 149.25 101.25
755718 1 113.25 20.25 116.25
764983 1 68.25 128.25 119.25
770679 1 116.25 101.25 122.25
776998 1 113.25 98.25 125.25
777078 1 113.25 101.25 125.25
783317 1 110.25 95.25 128.25
783397 1 110.25 98.25 128.25
783477 1 110.25 101.25 128.25
789876 1 107.25 101.25 131.25
804041 1 122.25 152.25 137.25
813397 1 110.25 23.25 143.25
815799 1 116.25 113.25 143.25
821804 1 131.25 98.25 146.25
821805 1 134.25 98.25 146.25
821884 1 131.25 101.25 146.25
834431 1 92.25 92.25 152.25
840350 1 89.25 74.25 155.25
846751 1 92.25 74.25 158.25
847158 1 113.25 89.25 158.25
860595 1 104.25 113.25 164.25
936984 1 71.25 98.25 200.25
950417 1 50.25 122.25 206.25
