ITEM: TIMESTEP
79197
ITEM: NUMBER OF ATOMS
28
ITEM: BOX BOUNDS pp pp pp
0 240
0 240
0 240
ITEM: ATOMS id type x y z c_myKE c_myPE
752585 1 72.3151 145.685 111.858 0 -6.25391
758917 1 108.646 142.493 116.997 0 -6.25624
772444 1 130.974 169.255 121.44 0 -6.25376
776351 1 89.5071 70.3704 124.622 0 -6.25418
784600 1 116.965 143.738 127.811 0 -6.25645
796926 1 137.671 126.217 134.007 0 -7.05773
791311 1 91.4484 158.456 134.185 0 -6.25413
291327 1 137.669 124.398 135.831 0 -7.0674
796927 1 139.491 126.217 135.83 0 -7.07097
816121 1 118.228 126.546 143.756 0 -6.25856
829411 1 153.734 144.006 152.928 0 -7.22149
323812 1 156.074 142.536 156.278 0 -7.07134
848193 1 97.8307 127.777 161.561 0 -6.95517
848351 1 91.4975 134.025 161.548 0 -6.84547
854671 1 91.6102 131.066 164.828 0 -7.25499
867312 1 92.6127 126.415 169.405 0 -6.55249
886035 1 102.273 105.436 178.861 0 -6.25279
937319 1 116.975 108.638 206.317 0 -6.25298
245000 1 118.565 62.3991 115.408 0 -6.25412
266609 1 147.262 158.096 123.046 0 -6.82141
273008 1 144.005 157.973 126.301 0 -6.546
298111 1 87.8796 140.895 138.972 0 -6.2532
323891 1 151.195 144.143 153.745 0 -7.69505
842129 1 150.518 145.292 158.033 0 -7.04575
342673 1 96.0766 129.552 163.25 0 -7.37267
349153 1 96.2181 132.453 166.467 0 -7.71031
349232 1 92.9831 135.935 166.56 0 -6.66339
426031 1 87.9146 135.758 204.714 0 -6.25373
