ITEM: TIMESTEP
77220
ITEM: NUMBER OF ATOMS
41
ITEM: BOX BOUNDS pp pp pp
0 240
0 240
0 240
ITEM: ATOMS id type x y z
124187 1 78.75 96.75 57.75
168521 1 120.75 78.75 78.75
174920 1 117.75 78.75 81.75
187888 1 141.75 84.75 87.75
194368 1 141.75 87.75 90.75
208030 1 87.75 120.75 96.75
233404 1 129.75 111.75 108.75
239626 1 75.75 105.75 111.75
278116 1 105.75 108.75 129.75
284118 1 111.75 93.75 132.75
296990 1 87.75 96.75 138.75
302918 1 111.75 78.75 141.75
304670 1 87.75 144.75 141.75
310990 1 87.75 141.75 144.75
315546 1 75.75 72.75 147.75
328203 1 126.75 66.75 153.75
334604 1 129.75 66.75 156.75
334850 1 147.75 75.75 156.75
343231 1 90.75 150.75 159.75
343311 1 90.75 153.75 159.75
347710 1 87.75 78.75 162.75
719950 1 89.25 119.25 98.25
721145 1 74.25 164.25 98.25
757085 1 134.25 71.25 116.25
768990 1 89.25 38.25 122.25
770583 1 68.25 98.25 122.25
776982 1 65.25 98.25 125.25
777063 1 68.25 101.25 125.25
783714 1 101.25 110.25 128.25
783795 1 104.25 113.25 128.25
790115 1 104.25 110.25 131.25
796109 1 86.25 95.25 134.25
802429 1 86.25 92.25 137.25
808905 1 74.25 95.25 140.25
815306 1 77.25 95.25 143.25
821146 1 77.25 74.25 146.25
822909 1 86.25 140.25 146.25
827465 1 74.25 71.25 149.25
840371 1 152.25 74.25 155.25
846770 1 149.25 74.25 158.25
848831 1 92.25 152.25 158.25
