ITEM: TIMESTEP
79250
ITEM: NUMBER OF ATOMS
45
ITEM: BOX BOUNDS pp pp pp
0 240
0 240
0 240
ITEM: ATOMS id type x y z
144594 1 99.75 141.75 66.75
194910 1 87.75 108.75 90.75
207393 1 96.75 96.75 96.75
208355 1 102.75 132.75 96.75
214996 1 105.75 141.75 99.75
227552 1 93.75 132.75 105.75
227872 1 93.75 144.75 105.75
233952 1 93.75 132.75 108.75
233953 1 96.75 132.75 108.75
234277 1 108.75 144.75 108.75
246829 1 84.75 135.75 114.75
278919 1 114.75 138.75 129.75
284832 1 93.75 120.75 132.75
362845 1 132.75 165.75 168.75
368521 1 120.75 138.75 171.75
369332 1 153.75 168.75 171.75
375890 1 147.75 174.75 174.75
382132 1 153.75 168.75 177.75
382202 1 123.75 171.75 177.75
388603 1 126.75 171.75 180.75
401813 1 156.75 186.75 186.75
649790 1 89.25 128.25 65.25
649870 1 89.25 131.25 65.25
675308 1 83.25 125.25 77.25
681629 1 86.25 122.25 80.25
706828 1 83.25 107.25 92.25
707073 1 98.25 116.25 92.25
720514 1 101.25 140.25 98.25
726832 1 95.25 137.25 101.25
733073 1 98.25 131.25 104.25
739392 1 95.25 128.25 107.25
752267 1 80.25 131.25 113.25
771310 1 89.25 125.25 122.25
771632 1 95.25 137.25 122.25
809472 1 95.25 116.25 140.25
854199 1 116.25 113.25 161.25
861965 1 134.25 164.25 164.25
867157 1 110.25 119.25 167.25
868449 1 146.25 167.25 167.25
868452 1 155.25 167.25 167.25
879798 1 113.25 113.25 173.25
894454 1 161.25 182.25 179.25
894531 1 152.25 185.25 179.25
900852 1 155.25 182.25 182.25
913653 1 158.25 182.25 188.25
