ITEM: TIMESTEP
80000
ITEM: NUMBER OF ATOMS
23
ITEM: BOX BOUNDS pp pp pp
0 240
0 240
0 240
ITEM: ATOMS id type x y z
258849 1 144.75 105.75 120.75
258928 1 141.75 108.75 120.75
265328 1 141.75 108.75 123.75
291956 1 105.75 147.75 135.75
297472 1 93.75 114.75 138.75
336043 1 126.75 120.75 156.75
355544 1 69.75 132.75 165.75
367788 1 81.75 111.75 171.75
367869 1 84.75 114.75 171.75
770847 1 140.25 107.25 122.25
803955 1 104.25 149.25 137.25
804350 1 89.25 164.25 137.25
810435 1 104.25 152.25 140.25
815641 1 122.25 107.25 143.25
828449 1 146.25 107.25 149.25
841562 1 125.25 119.25 155.25
841642 1 125.25 122.25 155.25
866987 1 80.25 113.25 167.25
873471 1 92.25 116.25 170.25
873552 1 95.25 119.25 170.25
885807 1 140.25 98.25 176.25
943414 1 161.25 98.25 203.25
945412 1 155.25 173.25 203.25
