ITEM: TIMESTEP
81000
ITEM: NUMBER OF ATOMS
37
ITEM: BOX BOUNDS pp pp pp
0 240
0 240
0 240
ITEM: ATOMS id type x y z
206843 1 126.75 75.75 96.75
220237 1 228.75 96.75 102.75
227869 1 84.75 144.75 105.75
258528 1 141.75 93.75 120.75
258607 1 138.75 96.75 120.75
265006 1 135.75 96.75 123.75
266259 1 54.75 144.75 123.75
271405 1 132.75 96.75 126.75
271483 1 126.75 99.75 126.75
271484 1 129.75 99.75 126.75
277804 1 129.75 96.75 129.75
289815 1 162.75 66.75 135.75
296440 1 117.75 75.75 138.75
321823 1 186.75 66.75 150.75
322596 1 105.75 96.75 150.75
322675 1 102.75 99.75 150.75
329076 1 105.75 99.75 153.75
347590 1 207.75 72.75 162.75
733088 1 143.25 131.25 104.25
739487 1 140.25 131.25 107.25
763423 1 188.25 68.25 119.25
783324 1 131.25 95.25 128.25
783402 1 125.25 98.25 128.25
783403 1 128.25 98.25 128.25
783404 1 131.25 98.25 128.25
789725 1 134.25 95.25 131.25
795334 1 161.25 65.25 134.25
795413 1 158.25 68.25 134.25
800772 1 155.25 29.25 137.25
800851 1 152.25 32.25 137.25
801733 1 158.25 65.25 137.25
801814 1 161.25 68.25 137.25
807252 1 155.25 32.25 140.25
814369 1 146.25 59.25 143.25
833670 1 209.25 62.25 152.25
841075 1 104.25 101.25 155.25
898850 1 149.25 107.25 182.25
