ITEM: TIMESTEP
78519
ITEM: NUMBER OF ATOMS
44
ITEM: BOX BOUNDS pp pp pp
0 240
0 240
0 240
ITEM: ATOMS id type x y z
206611 1 150.75 66.75 96.75
213496 1 165.75 84.75 99.75
219811 1 150.75 81.75 102.75
239313 1 96.75 93.75 111.75
239315 1 102.75 93.75 111.75
239390 1 87.75 96.75 111.75
239470 1 87.75 99.75 111.75
239638 1 111.75 105.75 111.75
246114 1 99.75 108.75 114.75
251872 1 93.75 84.75 117.75
251876 1 105.75 84.75 117.75
252110 1 87.75 93.75 117.75
252193 1 96.75 96.75 117.75
252434 1 99.75 105.75 117.75
252514 1 99.75 108.75 117.75
258516 1 105.75 93.75 120.75
264852 1 153.75 90.75 123.75
264916 1 105.75 93.75 123.75
264994 1 99.75 96.75 123.75
271316 1 105.75 93.75 126.75
271396 1 105.75 96.75 126.75
283810 1 147.75 81.75 132.75
296755 1 102.75 87.75 138.75
335329 1 144.75 93.75 156.75
712454 1 161.25 77.25 95.25
718691 1 152.25 71.25 98.25
718852 1 155.25 77.25 98.25
726111 1 92.25 110.25 101.25
738270 1 89.25 86.25 107.25
738593 1 98.25 98.25 107.25
745069 1 86.25 101.25 110.25
751631 1 92.25 107.25 113.25
764191 1 92.25 98.25 119.25
764275 1 104.25 101.25 119.25
770274 1 101.25 86.25 122.25
770676 1 107.25 101.25 122.25
770834 1 101.25 107.25 122.25
776915 1 104.25 95.25 125.25
777168 1 143.25 104.25 125.25
777472 1 95.25 116.25 125.25
783316 1 107.25 95.25 128.25
796112 1 95.25 95.25 134.25
815653 1 158.25 107.25 143.25
828131 1 152.25 95.25 149.25
