ITEM: TIMESTEP
79154
ITEM: NUMBER OF ATOMS
33
ITEM: BOX BOUNDS pp pp pp
0 240
0 240
0 240
ITEM: ATOMS id type x y z
201484 1 129.75 114.75 93.75
239073 1 96.75 84.75 111.75
252035 1 102.75 90.75 117.75
258598 1 111.75 96.75 120.75
258677 1 108.75 99.75 120.75
264840 1 117.75 90.75 123.75
270764 1 129.75 72.75 126.75
271240 1 117.75 90.75 126.75
271398 1 111.75 96.75 126.75
271478 1 111.75 99.75 126.75
271479 1 114.75 99.75 126.75
277722 1 123.75 93.75 129.75
284277 1 108.75 99.75 132.75
284281 1 120.75 99.75 132.75
291000 1 117.75 111.75 135.75
291001 1 120.75 111.75 135.75
316203 1 126.75 96.75 147.75
745079 1 116.25 101.25 110.25
770517 1 110.25 95.25 122.25
776849 1 146.25 92.25 125.25
776919 1 116.25 95.25 125.25
776930 1 149.25 95.25 125.25
783319 1 116.25 95.25 128.25
783327 1 140.25 95.25 128.25
783557 1 110.25 104.25 128.25
789642 1 125.25 92.25 131.25
789725 1 134.25 95.25 131.25
789798 1 113.25 98.25 131.25
796117 1 110.25 95.25 134.25
802517 1 110.25 95.25 137.25
802761 1 122.25 104.25 137.25
809241 1 122.25 107.25 140.25
821801 1 122.25 98.25 146.25
