ITEM: TIMESTEP
78331
ITEM: NUMBER OF ATOMS
34
ITEM: BOX BOUNDS pp pp pp
0 240
0 240
0 240
ITEM: ATOMS id type x y z
183330 1 147.75 153.75 84.75
196212 1 153.75 156.75 90.75
208689 1 144.75 144.75 96.75
208694 1 159.75 144.75 96.75
214930 1 147.75 138.75 99.75
215087 1 138.75 144.75 99.75
215170 1 147.75 147.75 99.75
215244 1 129.75 150.75 99.75
215247 1 138.75 150.75 99.75
215484 1 129.75 159.75 99.75
221805 1 132.75 156.75 102.75
226754 1 99.75 102.75 105.75
226759 1 114.75 102.75 105.75
234203 1 126.75 141.75 108.75
240119 1 114.75 123.75 111.75
240760 1 117.75 147.75 111.75
284448 1 141.75 105.75 132.75
303485 1 132.75 99.75 141.75
682290 1 149.25 146.25 80.25
701645 1 134.25 152.25 89.25
707885 1 134.25 146.25 92.25
707890 1 149.25 146.25 92.25
720607 1 140.25 143.25 98.25
720765 1 134.25 149.25 98.25
721011 1 152.25 158.25 98.25
727087 1 140.25 146.25 101.25
732998 1 113.25 128.25 104.25
733406 1 137.25 143.25 104.25
733648 1 143.25 152.25 104.25
745155 1 104.25 104.25 110.25
745400 1 119.25 113.25 110.25
758118 1 113.25 110.25 116.25
765083 1 128.25 131.25 119.25
808918 1 113.25 95.25 140.25
