ITEM: TIMESTEP
76000
ITEM: NUMBER OF ATOMS
36
ITEM: BOX BOUNDS pp pp pp
0 240
0 240
0 240
ITEM: ATOMS id type x y z
194915 1 102.75 108.75 90.75
214353 1 96.75 117.75 99.75
226923 1 126.75 108.75 105.75
227162 1 123.75 117.75 105.75
227322 1 123.75 123.75 105.75
233482 1 123.75 114.75 108.75
239404 1 129.75 96.75 111.75
245801 1 120.75 96.75 114.75
252039 1 114.75 90.75 117.75
252356 1 105.75 102.75 117.75
264523 1 126.75 78.75 123.75
264603 1 126.75 81.75 123.75
264681 1 120.75 84.75 123.75
264759 1 114.75 87.75 123.75
264839 1 114.75 90.75 123.75
270765 1 132.75 72.75 126.75
271005 1 132.75 81.75 126.75
271559 1 114.75 102.75 126.75
277484 1 129.75 84.75 129.75
277560 1 117.75 87.75 129.75
283801 1 120.75 81.75 132.75
290523 1 126.75 93.75 135.75
296920 1 117.75 93.75 138.75
303320 1 117.75 93.75 141.75
303481 1 120.75 99.75 141.75
700604 1 131.25 113.25 89.25
707160 1 119.25 119.25 92.25
713315 1 104.25 110.25 95.25
745322 1 125.25 110.25 110.25
745479 1 116.25 116.25 110.25
751241 1 122.25 92.25 113.25
751724 1 131.25 110.25 113.25
751875 1 104.25 116.25 113.25
752125 1 134.25 125.25 113.25
757719 1 116.25 95.25 116.25
770519 1 116.25 95.25 122.25
