ITEM: TIMESTEP
75000
ITEM: NUMBER OF ATOMS
22
ITEM: BOX BOUNDS pp pp pp
0 240
0 240
0 240
ITEM: ATOMS id type x y z
207393 1 96.75 96.75 96.75
251792 1 93.75 81.75 117.75
264508 1 81.75 78.75 123.75
270827 1 78.75 75.75 126.75
271872 1 93.75 114.75 126.75
271874 1 99.75 114.75 126.75
290511 1 90.75 93.75 135.75
296587 1 78.75 81.75 138.75
302591 1 90.75 66.75 141.75
316597 1 108.75 111.75 147.75
335714 1 99.75 108.75 156.75
759083 1 128.25 146.25 116.25
769864 1 71.25 71.25 122.25
778346 1 77.25 149.25 125.25
783554 1 101.25 104.25 128.25
790268 1 83.25 116.25 131.25
801469 1 86.25 56.25 137.25
809470 1 89.25 116.25 140.25
809786 1 77.25 128.25 140.25
816106 1 77.25 125.25 143.25
828511 1 92.25 110.25 149.25
835074 1 101.25 116.25 152.25
