ITEM: TIMESTEP
77280
ITEM: NUMBER OF ATOMS
25
ITEM: BOX BOUNDS pp pp pp
0 240
0 240
0 240
ITEM: ATOMS id type x y z
207957 1 108.75 117.75 96.75
251962 1 123.75 87.75 117.75
258195 1 102.75 81.75 120.75
258356 1 105.75 87.75 120.75
264756 1 105.75 87.75 123.75
271154 1 99.75 87.75 126.75
271475 1 102.75 99.75 126.75
277235 1 102.75 75.75 129.75
290276 1 105.75 84.75 135.75
290357 1 108.75 87.75 135.75
290523 1 126.75 93.75 135.75
296279 1 114.75 69.75 138.75
296596 1 105.75 81.75 138.75
302754 1 99.75 72.75 141.75
776518 1 113.25 80.25 125.25
776598 1 113.25 83.25 125.25
783880 1 119.25 116.25 128.25
789318 1 113.25 80.25 131.25
795793 1 98.25 83.25 134.25
802198 1 113.25 83.25 137.25
802271 1 92.25 86.25 137.25
802674 1 101.25 101.25 137.25
814110 1 89.25 50.25 143.25
821074 1 101.25 71.25 146.25
827637 1 110.25 77.25 149.25
