ITEM: TIMESTEP
77280
ITEM: NUMBER OF ATOMS
25
ITEM: BOX BOUNDS pp pp pp
0 240
0 240
0 240
ITEM: ATOMS id type x y z c_myKE c_myPE
700346 1 76.7078 102.298 85.1321 0 -6.37155
706346 1 73.5667 88.0936 89.6844 0 -6.82512
706427 1 76.8138 88.3716 89.6039 0 -6.96507
720434 1 98.9727 139.273 97.9578 0 -7.26392
726753 1 96.0511 136.205 100.876 0 -7.09624
726834 1 99.2345 139.527 100.86 0 -7.26866
744191 1 89.4023 65.8648 110.533 0 -6.55002
750671 1 89.5294 69.1205 113.788 0 -6.82307
315311 1 91.4667 59.5734 146.943 0 -6.25662
878594 1 101.031 64.002 177.589 0 -6.25503
194268 1 78.4632 83.3567 87.8127 0 -6.56636
194347 1 75.2211 86.6332 87.8092 0 -7.63225
207468 1 78.3406 99.5306 94.3022 0 -6.35658
214915 1 100.747 141.069 99.2814 0 -7.21645
219959 1 113.448 83.4921 103.868 0 -6.25517
221153 1 94.2406 134.731 102.497 0 -7.17754
221234 1 97.3516 137.924 102.548 0 -7.79436
227633 1 94.4772 137.527 105.955 0 -7.33039
752032 1 96.2397 126.201 112.153 0 -6.25307
258772 1 156.84 100.701 119.833 0 -6.82118
265171 1 153.584 100.575 123.089 0 -6.5471
777319 1 113.443 109.011 126.203 0 -6.24849
278670 1 86.6655 132.588 129.394 0 -6.2594
289708 1 77.1055 57.9744 134.53 0 -6.25631
290918 1 110.24 105.823 138.967 0 -6.25958
