ITEM: TIMESTEP
86213
ITEM: NUMBER OF ATOMS
55
ITEM: BOX BOUNDS pp pp pp
0 240
0 240
0 240
ITEM: ATOMS id type x y z
208110 1 87.75 123.75 96.75
226757 1 108.75 102.75 105.75
227237 1 108.75 120.75 105.75
233555 1 102.75 117.75 108.75
239472 1 93.75 99.75 111.75
239476 1 105.75 99.75 111.75
239954 1 99.75 117.75 111.75
252114 1 99.75 93.75 117.75
252349 1 84.75 102.75 117.75
258516 1 105.75 93.75 120.75
258749 1 84.75 102.75 120.75
258924 1 129.75 108.75 120.75
264833 1 96.75 90.75 123.75
272528 1 141.75 138.75 126.75
278206 1 135.75 111.75 129.75
285412 1 153.75 141.75 132.75
285735 1 162.75 153.75 132.75
292056 1 165.75 150.75 135.75
311495 1 162.75 159.75 144.75
337415 1 162.75 171.75 156.75
343816 1 165.75 171.75 159.75
375981 1 180.75 177.75 174.75
402387 1 198.75 207.75 186.75
440630 1 207.75 201.75 204.75
447032 1 213.75 201.75 207.75
447191 1 210.75 207.75 207.75
465909 1 204.75 189.75 216.75
472955 1 222.75 213.75 219.75
732594 1 101.25 113.25 104.25
732755 1 104.25 119.25 104.25
745310 1 89.25 110.25 110.25
745398 1 113.25 113.25 110.25
745795 1 104.25 128.25 110.25
751236 1 107.25 92.25 113.25
751562 1 125.25 104.25 113.25
757789 1 86.25 98.25 116.25
757947 1 80.25 104.25 116.25
784449 1 146.25 137.25 128.25
810216 1 167.25 143.25 140.25
855976 1 167.25 179.25 161.25
868707 1 200.25 176.25 167.25
881579 1 176.25 179.25 173.25
881580 1 179.25 179.25 173.25
887819 1 176.25 173.25 176.25
907829 1 206.25 203.25 185.25
952710 1 209.25 206.25 206.25
952711 1 212.25 206.25 206.25
952790 1 209.25 209.25 206.25
952791 1 212.25 209.25 206.25
952871 1 212.25 212.25 206.25
953109 1 206.25 221.25 206.25
958943 1 188.25 200.25 209.25
965993 1 218.25 224.25 212.25
971585 1 194.25 194.25 215.25
971750 1 209.25 200.25 215.25
