ITEM: TIMESTEP
79305
ITEM: NUMBER OF ATOMS
46
ITEM: BOX BOUNDS pp pp pp
0 240
0 240
0 240
ITEM: ATOMS id type x y z
266512 1 93.75 153.75 123.75
271249 1 144.75 90.75 126.75
272832 1 93.75 150.75 126.75
277568 1 141.75 87.75 129.75
279720 1 117.75 168.75 129.75
284047 1 138.75 90.75 132.75
298998 1 111.75 171.75 138.75
317231 1 90.75 135.75 147.75
323630 1 87.75 135.75 150.75
323711 1 90.75 138.75 150.75
323791 1 90.75 141.75 150.75
330110 1 87.75 138.75 153.75
330191 1 90.75 141.75 153.75
342740 1 57.75 132.75 159.75
343243 1 126.75 150.75 159.75
349141 1 60.75 132.75 162.75
355619 1 54.75 135.75 165.75
356841 1 120.75 180.75 165.75
401066 1 75.75 159.75 186.75
401147 1 78.75 162.75 186.75
406196 1 105.75 111.75 189.75
764041 1 122.25 92.25 119.25
783168 1 143.25 89.25 128.25
785230 1 89.25 167.25 128.25
785240 1 119.25 167.25 128.25
789487 1 140.25 86.25 131.25
789567 1 140.25 89.25 131.25
791404 1 131.25 158.25 131.25
822750 1 89.25 134.25 146.25
822911 1 92.25 140.25 146.25
829070 1 89.25 131.25 149.25
829149 1 86.25 134.25 149.25
829150 1 89.25 134.25 149.25
829230 1 89.25 137.25 149.25
829231 1 92.25 137.25 149.25
829311 1 92.25 140.25 149.25
835629 1 86.25 137.25 152.25
835630 1 89.25 137.25 152.25
835710 1 89.25 140.25 152.25
835791 1 92.25 143.25 152.25
842110 1 89.25 140.25 155.25
842190 1 89.25 143.25 155.25
848842 1 125.25 152.25 158.25
848843 1 128.25 152.25 158.25
854819 1 56.25 137.25 161.25
906665 1 74.25 161.25 185.25
