ITEM: TIMESTEP
77000
ITEM: NUMBER OF ATOMS
32
ITEM: BOX BOUNDS pp pp pp
0 240
0 240
0 240
ITEM: ATOMS id type x y z
180042 1 123.75 30.75 84.75
214357 1 108.75 117.75 99.75
226359 1 114.75 87.75 105.75
246672 1 93.75 129.75 114.75
278269 1 84.75 114.75 129.75
289643 1 126.75 60.75 135.75
296599 1 114.75 81.75 138.75
328369 1 144.75 72.75 153.75
333943 1 66.75 42.75 156.75
349645 1 132.75 150.75 162.75
349646 1 135.75 150.75 162.75
354673 1 96.75 99.75 165.75
366996 1 105.75 81.75 171.75
634135 1 164.25 20.25 59.25
634214 1 161.25 23.25 59.25
705170 1 149.25 44.25 92.25
732026 1 77.25 92.25 104.25
778119 1 116.25 140.25 125.25
822041 1 122.25 107.25 146.25
826898 1 53.25 50.25 149.25
833727 1 140.25 65.25 152.25
833808 1 143.25 68.25 152.25
833889 1 146.25 71.25 152.25
848766 1 137.25 149.25 158.25
855165 1 134.25 149.25 161.25
866511 1 92.25 95.25 167.25
866593 1 98.25 98.25 167.25
866673 1 98.25 101.25 167.25
885544 1 71.25 89.25 176.25
885796 1 107.25 98.25 176.25
887089 1 146.25 146.25 176.25
899236 1 107.25 122.25 182.25
