ITEM: TIMESTEP
79000
ITEM: NUMBER OF ATOMS
34
ITEM: BOX BOUNDS pp pp pp
0 240
0 240
0 240
ITEM: ATOMS id type x y z
150207 1 138.75 111.75 69.75
188527 1 138.75 108.75 87.75
195006 1 135.75 111.75 90.75
195167 1 138.75 117.75 90.75
195326 1 135.75 123.75 90.75
207402 1 123.75 96.75 96.75
207724 1 129.75 108.75 96.75
208042 1 123.75 120.75 96.75
213883 1 126.75 99.75 99.75
220200 1 117.75 96.75 102.75
220443 1 126.75 105.75 102.75
226602 1 123.75 96.75 105.75
226682 1 123.75 99.75 105.75
226836 1 105.75 105.75 105.75
227002 1 123.75 111.75 105.75
239641 1 120.75 105.75 111.75
649634 1 101.25 122.25 65.25
681408 1 143.25 113.25 80.25
693888 1 143.25 101.25 86.25
694282 1 125.25 116.25 86.25
694852 1 155.25 137.25 86.25
706844 1 131.25 107.25 92.25
706923 1 128.25 110.25 92.25
707810 1 149.25 143.25 92.25
713165 1 134.25 104.25 95.25
713400 1 119.25 113.25 95.25
713969 1 146.25 134.25 95.25
719562 1 125.25 104.25 98.25
725966 1 137.25 104.25 101.25
732441 1 122.25 107.25 104.25
738517 1 110.25 95.25 107.25
738601 1 122.25 98.25 107.25
745245 1 134.25 107.25 110.25
751482 1 125.25 101.25 113.25
