ITEM: TIMESTEP
77000
ITEM: NUMBER OF ATOMS
45
ITEM: BOX BOUNDS pp pp pp
0 240
0 240
0 240
ITEM: ATOMS id type x y z c_myKE c_myPE
693553 1 97.9366 88.4832 83.2844 0.11165 -7.16251
699873 1 97.9519 84.991 86.6368 0.126805 -6.65773
718755 1 104.414 72.2939 95.8865 0.576537 -6.84188
725075 1 104.367 69.4919 99.1663 0.233841 -6.52217
739807 1 140.341 145.02 105.454 0.194676 -6.69746
737149 1 82.7738 40.4994 107.605 0.213459 -6.9469
746126 1 138.919 143.382 107.26 0.280075 -6.98325
240535 1 164.967 137.506 112.001 0.408868 -7.39547
777967 1 143.74 130.27 124.643 0.160113 -7.90297
784206 1 143.804 133.864 128.194 0.324906 -8.10174
778048 1 144.005 139.628 126.093 0.00143271 -7.39369
278931 1 149.123 139.533 128.179 0.273346 -7.19374
285250 1 149.522 135.864 131.203 0.145904 -6.92351
790051 1 153.485 105.354 132.515 0.526163 -6.55064
803568 1 148.868 134.064 143.657 0.116229 -6.73261
303465 1 70.2486 98.2265 145.608 0.130601 -6.63562
816369 1 145.429 134.059 146.634 0.247346 -6.55468
879398 1 113.685 97.8366 177.316 0.240978 -6.65497
885719 1 117.099 94.5114 180.617 0.397545 -7.3058
168026 1 71.958 55.7859 75.2358 0.0563577 -6.89731
181562 1 125.165 84.7284 81.3727 0.0694528 -6.28772
218676 1 103.935 33.5963 102.433 0.0697089 -6.20143
225230 1 84.7343 41.5868 105.827 0.0521918 -6.08192
234208 1 145.158 147.574 106.743 0.247412 -7.42483
227968 1 141.698 150.253 105.658 0.0885275 -7.45744
227969 1 144.538 150.222 106.82 0.37471 -7.333
233969 1 145.509 132.754 109.002 0.219846 -7.22817
246608 1 142.25 132.751 112.378 0.111593 -7.64995
240439 1 118.392 139.131 112.161 0.215022 -6.39827
752534 1 163.404 139.403 111.95 0.216915 -6.4938
246593 1 94.1112 124.773 115.139 0.044913 -6.88362
259568 1 142.02 132.531 121.065 0.0105612 -7.18912
265970 1 145.541 134.225 122.877 0.119937 -8.01673
264036 1 105.788 59.2365 124.961 0.20244 -5.55123
266049 1 145.55 132.343 124.677 0.20591 -7.95199
272450 1 147.367 135.742 126.289 0.0406092 -7.88233
266126 1 138.093 139.191 124.777 0.0846083 -6.98408
266048 1 145.537 137.684 126.25 0.0756798 -7.29565
784448 1 142.158 137.796 129.958 0.0986133 -7.61728
278929 1 145.405 141.169 129.741 0.463267 -7.44717
285169 1 145.36 139.31 131.642 0.124581 -7.1098
284452 1 154.792 103.734 134.282 0.0710567 -6.99719
803164 1 132.634 120.012 135.885 0.249673 0
304210 1 150.285 129.31 145.293 0.338611 -7.10673
373799 1 115.291 96.4856 179.263 0.0718761 -7.35034
