ITEM: TIMESTEP
80733
ITEM: NUMBER OF ATOMS
37
ITEM: BOX BOUNDS pp pp pp
0 240
0 240
0 240
ITEM: ATOMS id type x y z
207393 1 96.75 96.75 96.75
277804 1 129.75 96.75 129.75
290754 1 99.75 102.75 135.75
297552 1 93.75 117.75 138.75
303718 1 111.75 108.75 141.75
303869 1 84.75 114.75 141.75
309638 1 111.75 90.75 144.75
316274 1 99.75 99.75 147.75
323235 1 102.75 120.75 150.75
329472 1 93.75 114.75 153.75
329558 1 111.75 117.75 153.75
335957 1 108.75 117.75 156.75
348676 1 105.75 114.75 162.75
348751 1 90.75 117.75 162.75
356200 1 117.75 156.75 165.75
356203 1 126.75 156.75 165.75
361473 1 96.75 114.75 168.75
362846 1 135.75 165.75 168.75
373954 1 99.75 102.75 174.75
381884 1 129.75 159.75 177.75
388124 1 129.75 153.75 180.75
764042 1 125.25 92.25 119.25
770358 1 113.25 89.25 122.25
796194 1 101.25 98.25 134.25
796511 1 92.25 110.25 134.25
802433 1 98.25 92.25 137.25
802513 1 98.25 95.25 137.25
802597 1 110.25 98.25 137.25
802755 1 104.25 104.25 137.25
809236 1 107.25 107.25 140.25
822037 1 110.25 107.25 146.25
834595 1 104.25 98.25 152.25
834830 1 89.25 107.25 152.25
841391 1 92.25 113.25 155.25
847631 1 92.25 107.25 158.25
899812 1 155.25 143.25 182.25
918849 1 146.25 137.25 191.25
