ITEM: TIMESTEP
77000
ITEM: NUMBER OF ATOMS
36
ITEM: BOX BOUNDS pp pp pp
0 240
0 240
0 240
ITEM: ATOMS id type x y z
195394 1 99.75 126.75 90.75
214114 1 99.75 108.75 99.75
215170 1 147.75 147.75 99.75
220834 1 99.75 120.75 102.75
227887 1 138.75 144.75 105.75
227890 1 147.75 144.75 105.75
234847 1 138.75 165.75 108.75
240448 1 141.75 135.75 111.75
252919 1 114.75 123.75 117.75
253305 1 72.75 138.75 117.75
253490 1 147.75 144.75 117.75
259307 1 78.75 123.75 120.75
272109 1 84.75 123.75 126.75
278611 1 150.75 126.75 129.75
291314 1 99.75 123.75 135.75
291394 1 99.75 126.75 135.75
291889 1 144.75 144.75 135.75
706913 1 98.25 110.25 92.25
707393 1 98.25 128.25 92.25
720195 1 104.25 128.25 98.25
740044 1 131.25 152.25 107.25
744908 1 83.25 95.25 110.25
746289 1 146.25 146.25 110.25
757879 1 116.25 101.25 116.25
758673 1 98.25 131.25 116.25
759091 1 152.25 146.25 116.25
759168 1 143.25 149.25 116.25
765227 1 80.25 137.25 119.25
765249 1 146.25 137.25 119.25
765408 1 143.25 143.25 119.25
771807 1 140.25 143.25 122.25
777870 1 89.25 131.25 125.25
777891 1 152.25 131.25 125.25
783714 1 101.25 110.25 128.25
784763 1 128.25 149.25 128.25
790744 1 71.25 134.25 131.25
