ITEM: TIMESTEP
80165
ITEM: NUMBER OF ATOMS
31
ITEM: BOX BOUNDS pp pp pp
0 240
0 240
0 240
ITEM: ATOMS id type x y z
189167 1 138.75 132.75 87.75
189173 1 156.75 132.75 87.75
227246 1 135.75 120.75 105.75
233565 1 132.75 117.75 108.75
233803 1 126.75 126.75 108.75
239878 1 111.75 114.75 111.75
240048 1 141.75 120.75 111.75
284114 1 99.75 93.75 132.75
334920 1 117.75 78.75 156.75
335241 1 120.75 90.75 156.75
335242 1 123.75 90.75 156.75
347557 1 108.75 72.75 162.75
353878 1 111.75 69.75 165.75
379484 1 129.75 69.75 177.75
436613 1 156.75 51.75 204.75
688129 1 146.25 125.25 83.25
707486 1 137.25 131.25 92.25
726611 1 152.25 128.25 101.25
732768 1 143.25 119.25 104.25
739325 1 134.25 125.25 107.25
739326 1 137.25 125.25 107.25
745723 1 128.25 125.25 110.25
752046 1 137.25 122.25 113.25
783631 1 92.25 107.25 128.25
802595 1 104.25 98.25 137.25
808670 1 89.25 86.25 140.25
840761 1 122.25 89.25 155.25
853160 1 119.25 74.25 161.25
859560 1 119.25 74.25 164.25
878521 1 122.25 65.25 173.25
910607 1 140.25 68.25 188.25
