ITEM: TIMESTEP
76175
ITEM: NUMBER OF ATOMS
21
ITEM: BOX BOUNDS pp pp pp
0 240
0 240
0 240
ITEM: ATOMS id type x y z c_myKE c_myPE
667474 1 99.0538 67.1688 70.3852 0 -6.25388
744053 1 159.658 57.604 108.665 0 -6.25438
758832 1 94.4803 139.267 113.811 0 -6.60013
240513 1 97.7957 142.478 113.864 0 -6.93297
758833 1 97.8348 139.425 117.013 0 -7.05853
777230 1 88.2404 107.386 126.561 0 -6.26619
784030 1 86.2761 121.278 129.764 0 -6.82912
784828 1 81.6952 155.235 129.731 0 -6.60389
784909 1 85.0309 158.422 129.827 0 -6.91024
791229 1 85.0304 155.326 132.923 0 -6.91157
796345 1 72.2657 104.188 136.158 0 -6.26656
309714 1 99.2091 91.5503 150.299 0 -6.54203
840683 1 129.699 85.0634 158.463 0 -6.25372
861072 1 94.6113 132.916 166.086 0 -6.25465
156352 1 91.0935 102.599 68.8034 0 -6.82148
162753 1 94.3487 102.722 72.0598 0 -6.5459
234264 1 67.5035 147.268 107.059 0 -6.25712
272031 1 88.0465 119.697 127.994 0 -6.54218
322434 1 97.4387 89.9669 148.527 0 -6.82378
347872 1 93.0038 81.5275 164.515 0 -6.82147
341631 1 89.7515 84.7858 164.374 0 -6.5584
