ITEM: TIMESTEP
77000
ITEM: NUMBER OF ATOMS
37
ITEM: BOX BOUNDS pp pp pp
0 240
0 240
0 240
ITEM: ATOMS id type x y z
149812 1 153.75 96.75 69.75
156529 1 144.75 108.75 72.75
161406 1 135.75 51.75 75.75
162691 1 150.75 99.75 75.75
162929 1 144.75 108.75 75.75
163008 1 141.75 111.75 75.75
174923 1 126.75 78.75 81.75
175411 1 150.75 96.75 81.75
181731 1 150.75 93.75 84.75
181810 1 147.75 96.75 84.75
206280 1 117.75 54.75 96.75
246206 1 135.75 111.75 114.75
278126 1 135.75 108.75 129.75
291390 1 87.75 126.75 135.75
609162 1 125.25 44.25 47.25
630374 1 161.25 119.25 56.25
661585 1 194.25 89.25 71.25
661666 1 197.25 92.25 71.25
661731 1 152.25 95.25 71.25
667087 1 140.25 56.25 74.25
668048 1 143.25 92.25 74.25
668051 1 152.25 92.25 74.25
668065 1 194.25 92.25 74.25
668211 1 152.25 98.25 74.25
668528 1 143.25 110.25 74.25
674529 1 146.25 95.25 77.25
674531 1 152.25 95.25 77.25
674612 1 155.25 98.25 77.25
680849 1 146.25 92.25 80.25
680930 1 149.25 95.25 80.25
692039 1 116.25 32.25 86.25
693731 1 152.25 95.25 86.25
698438 1 113.25 32.25 89.25
699638 1 113.25 77.25 89.25
718280 1 119.25 56.25 98.25
731633 1 98.25 77.25 104.25
771954 1 101.25 149.25 122.25
