ITEM: TIMESTEP
84309
ITEM: NUMBER OF ATOMS
31
ITEM: BOX BOUNDS pp pp pp
0 240
0 240
0 240
ITEM: ATOMS id type x y z
213713 1 96.75 93.75 99.75
252212 1 153.75 96.75 117.75
252290 1 147.75 99.75 117.75
258528 1 141.75 93.75 120.75
265080 1 117.75 99.75 123.75
265396 1 105.75 111.75 123.75
348751 1 90.75 117.75 162.75
451377 1 48.75 126.75 210.75
457859 1 54.75 129.75 213.75
458025 1 72.75 135.75 213.75
463541 1 60.75 102.75 216.75
470820 1 57.75 135.75 219.75
725633 1 98.25 92.25 101.25
725713 1 98.25 95.25 101.25
738753 1 98.25 104.25 107.25
751560 1 119.25 104.25 113.25
751793 1 98.25 113.25 113.25
764129 1 146.25 95.25 119.25
764201 1 122.25 98.25 119.25
764435 1 104.25 107.25 119.25
770439 1 116.25 92.25 122.25
776920 1 119.25 95.25 125.25
847629 1 86.25 107.25 158.25
944111 1 92.25 125.25 203.25
963141 1 62.25 119.25 212.25
969697 1 50.25 125.25 215.25
970024 1 71.25 137.25 215.25
976342 1 65.25 134.25 218.25
976422 1 65.25 137.25 218.25
976581 1 62.25 143.25 218.25
982258 1 53.25 116.25 221.25
