ITEM: TIMESTEP
78000
ITEM: NUMBER OF ATOMS
30
ITEM: BOX BOUNDS pp pp pp
0 240
0 240
0 240
ITEM: ATOMS id type x y z c_myKE c_myPE
751948 1 79.867 120.079 112.032 0.0470201 -6.70282
752027 1 76.5698 123.396 111.767 0.472928 -6.85425
758770 1 151.843 134.488 117.199 0.0989275 -6.32107
266354 1 97.9314 153.259 120.215 0.0717449 -7.31093
253634 1 101.152 153.563 120.125 0.258673 -8.06523
765715 1 97.8914 156.331 120.225 0.359048 -7.54209
759393 1 104.116 156.876 120.197 0.0188712 -7.38297
784911 1 94.685 156.452 123.629 0.128183 -6.70697
253715 1 104.206 156.691 123.201 0.213619 -8.44458
759397 1 107.456 156.74 123.194 0.298103 -7.77919
266514 1 104.313 159.525 123.468 0.165224 -7.71668
790188 1 75.5017 111.792 133.112 0.238862 -6.29503
842660 1 54.4357 164.545 156.67 0.0708285 -6.40003
178036 1 105.638 199.711 80.8224 0.0290295 -5.65918
195088 1 142.165 113.778 88.0244 0.320334 -6.5131
221226 1 72.0244 134.434 101.003 0.18353 -6.45532
222273 1 96.1038 177.141 100.884 0.0585956 -6.19176
733241 1 121.779 141.726 113.329 0.438519 -6.50759
247233 1 102.694 155.325 118.593 0.16903 -7.89938
266270 1 84.9496 145.488 123.154 0.386481 -7.15433
253635 1 102.758 155.112 121.567 0.0825716 -8.07367
784590 1 87.9206 145.057 126.233 0.0311722 -7.38686
266191 1 84.6019 148.422 126.415 0.274984 -7.29581
772114 1 102.674 154.931 124.719 0.0554262 -7.72851
279471 1 89.8884 161.17 126.09 0.137178 -6.47926
791071 1 87.939 148.466 129.114 0.167149 -6.84927
778356 1 106.098 155.09 127.789 0.121762 -7.05475
323147 1 75.0392 116.526 154.006 0.020119 -6.65517
343381 1 56.1302 159.943 161.057 0.00461026 -6.69738
361228 1 78.2468 106.142 172.723 0.0600886 -6.85627
