ITEM: TIMESTEP
79256
ITEM: NUMBER OF ATOMS
58
ITEM: BOX BOUNDS pp pp pp
0 240
0 240
0 240
ITEM: ATOMS id type x y z
214115 1 102.75 108.75 99.75
272117 1 108.75 123.75 126.75
285154 1 99.75 132.75 132.75
290745 1 72.75 102.75 135.75
290992 1 93.75 111.75 135.75
297315 1 102.75 108.75 138.75
303547 1 78.75 102.75 141.75
303870 1 87.75 114.75 141.75
304193 1 96.75 126.75 141.75
310428 1 81.75 120.75 144.75
310597 1 108.75 126.75 144.75
310672 1 93.75 129.75 144.75
316673 1 96.75 114.75 147.75
316674 1 99.75 114.75 147.75
316753 1 96.75 117.75 147.75
316834 1 99.75 120.75 147.75
316836 1 105.75 120.75 147.75
317072 1 93.75 129.75 147.75
317075 1 102.75 129.75 147.75
323152 1 93.75 117.75 150.75
323310 1 87.75 123.75 150.75
335873 1 96.75 114.75 156.75
335874 1 99.75 114.75 156.75
336034 1 99.75 120.75 156.75
336114 1 99.75 123.75 156.75
342114 1 99.75 108.75 159.75
368118 1 111.75 123.75 171.75
764517 1 110.25 110.25 119.25
790032 1 95.25 107.25 131.25
796513 1 98.25 110.25 134.25
797073 1 98.25 131.25 134.25
809393 1 98.25 113.25 140.25
809550 1 89.25 119.25 140.25
809556 1 107.25 119.25 140.25
809793 1 98.25 128.25 140.25
815954 1 101.25 119.25 143.25
815956 1 107.25 119.25 143.25
821871 1 92.25 101.25 146.25
822192 1 95.25 113.25 146.25
822193 1 98.25 113.25 146.25
822272 1 95.25 116.25 146.25
822273 1 98.25 116.25 146.25
822352 1 95.25 119.25 146.25
822429 1 86.25 122.25 146.25
828590 1 89.25 113.25 149.25
828752 1 95.25 119.25 149.25
828914 1 101.25 125.25 149.25
828915 1 104.25 125.25 149.25
835151 1 92.25 119.25 152.25
835236 1 107.25 122.25 152.25
841553 1 98.25 119.25 155.25
841554 1 101.25 119.25 155.25
841633 1 98.25 122.25 155.25
847953 1 98.25 119.25 158.25
848112 1 95.25 125.25 158.25
854192 1 95.25 113.25 161.25
860264 1 71.25 101.25 164.25
860996 1 107.25 128.25 164.25
