ITEM: TIMESTEP
80244
ITEM: NUMBER OF ATOMS
23
ITEM: BOX BOUNDS pp pp pp
0 240
0 240
0 240
ITEM: ATOMS id type x y z
176985 1 72.75 156.75 81.75
239325 1 132.75 93.75 111.75
252600 1 117.75 111.75 117.75
259303 1 66.75 123.75 120.75
289481 1 120.75 54.75 135.75
310121 1 120.75 108.75 144.75
310200 1 117.75 111.75 144.75
316520 1 117.75 108.75 147.75
316601 1 120.75 111.75 147.75
336209 1 144.75 126.75 156.75
399166 1 135.75 87.75 186.75
405487 1 138.75 84.75 189.75
405567 1 138.75 87.75 189.75
412842 1 123.75 120.75 192.75
412923 1 126.75 123.75 192.75
419243 1 126.75 120.75 195.75
457644 1 129.75 120.75 213.75
746437 1 110.25 152.25 110.25
790909 1 86.25 140.25 131.25
822121 1 122.25 110.25 146.25
859007 1 140.25 53.25 164.25
859857 1 50.25 86.25 164.25
911086 1 137.25 86.25 188.25
