ITEM: TIMESTEP
78000
ITEM: NUMBER OF ATOMS
43
ITEM: BOX BOUNDS pp pp pp
0 240
0 240
0 240
ITEM: ATOMS id type x y z c_myKE c_myPE
125654 1 161.632 149.861 53.3395 0.0423843 -6.32715
654683 1 128.051 67.4536 63.9583 0.202566 -6.34083
157572 1 155.215 152.929 69.4034 0.243478 -6.71997
680974 1 37.3633 97.8334 78.8489 0.538979 -6.35236
746041 1 121.161 139.253 110.686 0.024535 -7.8557
752278 1 113.613 131.036 115.17 0.418372 -7.26569
764917 1 113.867 131.078 118.414 0.0175888 -7.41723
758680 1 114.025 134.199 118.485 0.0149529 -7.92167
253159 1 116.896 134.307 118.291 0.278055 -7.85743
771559 1 116.974 137.419 118.361 0.290684 -7.91828
253322 1 120.209 137.487 118.49 0.0389823 -8.51476
764756 1 110.992 127.78 121.314 0.043677 -7.13864
265719 1 113.741 131.107 121.43 0.191434 -8.0875
771402 1 123.404 137.622 121.584 0.142093 -7.65249
259559 1 110.557 130.778 124.642 0.210928 -6.73596
104939 1 179.155 91.0021 45.0837 0.341288 -6.23716
157184 1 193.023 132.491 70.5217 0.196441 -6.34773
675570 1 151.866 132.837 77.0613 0.13865 -6.56235
681970 1 148.754 132.831 80.3235 0.110872 -6.45366
201798 1 112.365 128.094 90.7529 0.00940619 -6.37908
719237 1 112.309 93.401 96.3564 0.133155 -6.3072
226108 1 78.5465 77.0993 104.015 0.143512 -6.3348
232428 1 78.616 73.7977 107.11 0.0704147 -6.44359
227863 1 64.4123 148.641 105.63 0.027234 -5.39405
245157 1 109.384 68.7567 113.466 0.155482 -7.05883
240522 1 123.023 140.528 112.2 0.0158594 -8.07247
759002 1 124.772 145.035 113.657 0.181678 -6.67983
771238 1 112.101 129.451 116.746 0.230227 -7.52767
246920 1 118.439 138.835 116.654 0.0513266 -8.16893
771479 1 121.746 139.129 116.839 0.0429134 -8.48294
259641 1 124.852 138.917 116.958 0.367366 -7.68443
758839 1 116.832 140.773 115.22 0.39576 -7.78084
246921 1 120.092 140.707 115.374 0.312407 -8.43673
253402 1 121.666 142.23 116.879 0.208251 -8.20601
247081 1 121.999 145.196 116.785 0.123656 -7.6259
771399 1 115.385 132.442 119.908 0.288103 -7.67408
771561 1 118.682 135.795 119.751 0.103159 -7.87818
259640 1 121.948 135.701 119.981 0.0935719 -7.68024
272521 1 121.727 139.038 119.947 0.221014 -8.05991
259478 1 108.875 126.254 123.178 0.0955973 -7.44727
265797 1 105.644 126.226 126.417 0.28812 -6.91635
304357 1 107.693 132.233 142.175 0.285077 -6.51413
298038 1 109.634 135.672 141.234 0.029087 -6.83497
