ITEM: TIMESTEP
77148
ITEM: NUMBER OF ATOMS
28
ITEM: BOX BOUNDS pp pp pp
0 240
0 240
0 240
ITEM: ATOMS id type x y z c_myKE c_myPE
670284 1 132.924 180.784 70.3631 0 -6.25494
668443 1 127.783 105.455 72.3005 0 -6.25438
682209 1 148.884 145.688 78.6894 0 -6.24865
689080 1 118.297 164.943 81.7877 0 -6.52948
695479 1 115.038 164.844 85.0435 0 -6.8209
719170 1 152.063 86.3245 97.8273 0 -6.25578
734275 1 102.291 175.684 102.264 0 -6.81916
731795 1 104.173 81.8945 104.032 0 -6.60347
732126 1 139.232 94.7704 104.121 0 -6.55467
734035 1 105.551 175.534 105.511 0 -6.56231
744512 1 94.6031 76.7071 108.625 0 -6.28093
738196 1 107.38 81.96 107.365 0 -6.91667
226356 1 104.291 85.0634 107.367 0 -6.91168
738527 1 142.489 94.6357 107.374 0 -6.82252
752118 1 113.759 126.498 110.527 0 -6.26266
770523 1 127.879 92.5925 123.265 0 -6.54882
776922 1 124.624 92.7212 126.523 0 -6.82176
284915 1 105.474 124.607 132.9 0 -6.25224
841726 1 136.126 124.605 155.241 0 -6.25443
643645 1 134.604 139.069 54.6746 0 -6.57429
131567 1 134.556 135.761 57.9985 0 -7.52125
650045 1 132.583 137.694 59.1167 0 -6.90852
707077 1 103.936 115.497 89.7601 0 -6.52714
201398 1 100.67 115.398 93.0034 0 -6.81853
246919 1 113.426 138.983 113.404 0 -6.26442
241392 1 91.1238 174.07 112.154 0 -6.82127
241473 1 94.3794 177.327 112.29 0 -6.55447
271573 1 160.05 100.679 126.193 0 -6.25285
