ITEM: TIMESTEP
78000
ITEM: NUMBER OF ATOMS
41
ITEM: BOX BOUNDS pp pp pp
0 240
0 240
0 240
ITEM: ATOMS id type x y z
208033 1 96.75 120.75 96.75
220752 1 93.75 117.75 102.75
227394 1 99.75 126.75 105.75
227553 1 96.75 132.75 105.75
233714 1 99.75 123.75 108.75
246356 1 105.75 117.75 114.75
252518 1 111.75 108.75 117.75
252832 1 93.75 120.75 117.75
259310 1 87.75 123.75 120.75
265554 1 99.75 117.75 123.75
272036 1 105.75 120.75 126.75
278275 1 102.75 114.75 129.75
284436 1 105.75 105.75 132.75
316051 1 150.75 90.75 147.75
316282 1 123.75 99.75 147.75
316283 1 126.75 99.75 147.75
322521 1 120.75 93.75 150.75
328922 1 123.75 93.75 153.75
328929 1 144.75 93.75 153.75
329081 1 120.75 99.75 153.75
335322 1 123.75 93.75 156.75
367893 1 156.75 114.75 171.75
720112 1 95.25 125.25 98.25
726592 1 95.25 128.25 101.25
738752 1 95.25 104.25 107.25
739071 1 92.25 116.25 107.25
739314 1 101.25 125.25 107.25
758276 1 107.25 116.25 116.25
764753 1 98.25 119.25 119.25
771156 1 107.25 119.25 122.25
803238 1 113.25 122.25 137.25
821808 1 143.25 98.25 146.25
821810 1 149.25 98.25 146.25
827805 1 134.25 83.25 149.25
834203 1 128.25 83.25 152.25
834363 1 128.25 89.25 152.25
841088 1 143.25 101.25 155.25
872696 1 167.25 86.25 170.25
879817 1 170.25 113.25 173.25
879973 1 158.25 119.25 173.25
892930 1 149.25 125.25 179.25
