ITEM: TIMESTEP
77407
ITEM: NUMBER OF ATOMS
31
ITEM: BOX BOUNDS pp pp pp
0 240
0 240
0 240
ITEM: ATOMS id type x y z
246272 1 93.75 114.75 114.75
258431 1 90.75 90.75 120.75
264681 1 120.75 84.75 123.75
277791 1 90.75 96.75 129.75
277795 1 102.75 96.75 129.75
283715 1 102.75 78.75 132.75
284200 1 117.75 96.75 132.75
290512 1 93.75 93.75 135.75
290913 1 96.75 108.75 135.75
296998 1 111.75 96.75 138.75
297154 1 99.75 102.75 138.75
297234 1 99.75 105.75 138.75
719153 1 98.25 89.25 98.25
751711 1 92.25 110.25 113.25
757712 1 95.25 95.25 116.25
763874 1 101.25 86.25 119.25
763958 1 113.25 89.25 119.25
764035 1 104.25 92.25 119.25
764115 1 104.25 95.25 119.25
776346 1 77.25 74.25 125.25
777318 1 113.25 110.25 125.25
789870 1 89.25 101.25 131.25
790035 1 104.25 107.25 131.25
790352 1 95.25 119.25 131.25
796114 1 101.25 95.25 134.25
796349 1 86.25 104.25 134.25
802433 1 98.25 92.25 137.25
809071 1 92.25 101.25 140.25
815157 1 110.25 89.25 143.25
815553 1 98.25 104.25 143.25
834440 1 119.25 92.25 152.25
