ITEM: TIMESTEP
78391
ITEM: NUMBER OF ATOMS
17
ITEM: BOX BOUNDS pp pp pp
0 240
0 240
0 240
ITEM: ATOMS id type x y z
207717 1 108.75 108.75 96.75
226047 1 138.75 75.75 105.75
227485 1 132.75 129.75 105.75
259154 1 99.75 117.75 120.75
272601 1 120.75 141.75 126.75
291317 1 108.75 123.75 135.75
297637 1 108.75 120.75 138.75
297872 1 93.75 129.75 138.75
368830 1 87.75 150.75 171.75
375229 1 84.75 150.75 174.75
375310 1 87.75 153.75 174.75
386991 1 90.75 111.75 180.75
776756 1 107.25 89.25 125.25
796916 1 107.25 125.25 134.25
803318 1 113.25 125.25 137.25
809717 1 110.25 125.25 140.25
816122 1 125.25 125.25 143.25
