ITEM: TIMESTEP
81000
ITEM: NUMBER OF ATOMS
42
ITEM: BOX BOUNDS pp pp pp
0 240
0 240
0 240
ITEM: ATOMS id type x y z
150913 1 96.75 138.75 69.75
150914 1 99.75 138.75 69.75
157234 1 99.75 135.75 72.75
202353 1 96.75 147.75 93.75
219819 1 174.75 81.75 102.75
226218 1 171.75 81.75 105.75
226299 1 174.75 84.75 105.75
226680 1 117.75 99.75 105.75
226761 1 120.75 102.75 105.75
232680 1 117.75 84.75 108.75
233000 1 117.75 96.75 108.75
233079 1 114.75 99.75 108.75
233080 1 117.75 99.75 108.75
233081 1 120.75 99.75 108.75
233171 1 150.75 102.75 108.75
239399 1 114.75 96.75 111.75
239480 1 117.75 99.75 111.75
239570 1 147.75 102.75 111.75
257667 1 198.75 60.75 120.75
257903 1 186.75 69.75 120.75
264146 1 195.75 63.75 123.75
264148 1 201.75 63.75 123.75
270547 1 198.75 63.75 126.75
303026 1 195.75 81.75 141.75
642986 1 77.25 113.25 62.25
656433 1 98.25 137.25 68.25
661829 1 206.25 98.25 71.25
662913 1 98.25 140.25 71.25
688446 1 137.25 137.25 83.25
725498 1 173.25 86.25 101.25
732360 1 119.25 104.25 104.25
738679 1 116.25 101.25 107.25
744680 1 119.25 86.25 110.25
769666 1 197.25 62.25 122.25
769667 1 200.25 62.25 122.25
769745 1 194.25 65.25 122.25
769822 1 185.25 68.25 122.25
769826 1 197.25 68.25 122.25
776066 1 197.25 62.25 125.25
776146 1 197.25 65.25 125.25
776222 1 185.25 68.25 125.25
776302 1 185.25 71.25 125.25
