ITEM: TIMESTEP
81211
ITEM: NUMBER OF ATOMS
43
ITEM: BOX BOUNDS pp pp pp
0 240
0 240
0 240
ITEM: ATOMS id type x y z c_myKE c_myPE
662832 1 94.6687 139.296 67.1814 0 -7.08561
714272 1 94.6602 148.869 92.6955 0 -6.25637
725339 1 178.749 78.7861 101.165 0 -6.48501
719559 1 116.889 101.108 100.873 0 -6.6306
738137 1 174.417 78.6685 105.427 0 -6.27318
219819 1 177.637 81.7736 104.285 0 -7.42867
220199 1 116.805 97.7182 104.141 0 -7.65062
732280 1 120.204 101.087 104.282 0 -7.85507
232601 1 116.816 81.6698 108.491 0 -6.54959
232999 1 116.989 94.6531 107.419 0 -7.59441
738598 1 113.794 97.8209 107.378 0 -7.55605
220279 1 116.902 97.7451 107.327 0 -8.21563
233000 1 120.133 97.7054 107.198 0 -7.8227
738679 1 116.751 100.864 107.335 0 -7.48897
745090 1 152.082 101.033 108.651 0 -6.82147
220039 1 113.633 94.4846 110.618 0 -6.66677
751400 1 118.353 99.1731 111.791 0 -7.49641
751489 1 148.83 101.13 111.916 0 -6.52609
769667 1 204.52 57.7231 123.403 0 -7.95092
763266 1 201.232 60.8663 123.304 0 -8.24394
769905 1 201.258 64.0539 123.284 0 -7.47862
776301 1 188.37 67.1842 124.727 0 -7.08177
808545 1 199.959 78.7141 142.493 0 -6.25754
130987 1 75.1627 112.19 59.1989 0 -6.25461
662753 1 96.2466 137.893 65.447 0 -7.39777
150914 1 99.6857 140.778 65.6978 0 -7.65699
661828 1 212.334 97.4915 67.5179 0 -6.25395
157234 1 99.4044 137.604 68.9233 0 -6.46672
157313 1 96.2256 141.032 68.5951 0 -7.36464
182927 1 138.969 138.951 81.5266 0 -6.25591
219898 1 173.82 81.8654 100.896 0 -7.11417
219978 1 175.669 83.7157 100.897 0 -7.11457
226360 1 119.974 84.8512 109.086 0 -6.56474
763347 1 202.941 56.146 121.582 0 -7.15087
756948 1 202.831 59.1664 121.755 0 -7.95263
763426 1 199.538 62.4687 121.841 0 -7.4408
776303 1 189.991 65.6725 122.981 0 -7.50916
763503 1 193.358 68.8597 122.867 0 -6.63088
769666 1 202.974 59.4172 124.865 0 -8.43063
264148 1 206.161 59.4059 124.856 0 -7.67312
257747 1 202.768 62.4795 124.906 0 -8.16297
270702 1 190.143 65.4547 126.121 0 -7.03132
264147 1 202.972 59.3763 128.057 0 -7.76463
