ITEM: TIMESTEP
78000
ITEM: NUMBER OF ATOMS
26
ITEM: BOX BOUNDS pp pp pp
0 240
0 240
0 240
ITEM: ATOMS id type x y z
188433 1 96.75 105.75 87.75
194993 1 96.75 111.75 90.75
195313 1 96.75 123.75 90.75
201636 1 105.75 120.75 93.75
207792 1 93.75 111.75 96.75
208115 1 102.75 123.75 96.75
208195 1 102.75 126.75 96.75
239795 1 102.75 111.75 111.75
285722 1 123.75 153.75 132.75
291239 1 114.75 120.75 135.75
298596 1 105.75 156.75 138.75
304998 1 111.75 156.75 141.75
305241 1 120.75 165.75 141.75
330285 1 132.75 144.75 153.75
336686 1 135.75 144.75 156.75
349952 1 93.75 162.75 162.75
694675 1 104.25 131.25 86.25
713395 1 104.25 113.25 95.25
759631 1 92.25 167.25 116.25
791239 1 116.25 152.25 131.25
791712 1 95.25 170.25 131.25
804274 1 101.25 161.25 137.25
804283 1 128.25 161.25 137.25
810923 1 128.25 170.25 140.25
823719 1 116.25 170.25 146.25
829799 1 116.25 158.25 149.25
