ITEM: TIMESTEP
81172
ITEM: NUMBER OF ATOMS
38
ITEM: BOX BOUNDS pp pp pp
0 240
0 240
0 240
ITEM: ATOMS id type x y z
207393 1 96.75 96.75 96.75
234208 1 141.75 141.75 108.75
252118 1 111.75 93.75 117.75
253080 1 117.75 129.75 117.75
259317 1 108.75 123.75 120.75
265478 1 111.75 114.75 123.75
277874 1 99.75 99.75 129.75
278357 1 108.75 117.75 129.75
310360 1 117.75 117.75 144.75
310439 1 114.75 120.75 144.75
315952 1 93.75 87.75 147.75
322435 1 102.75 90.75 150.75
323319 1 114.75 123.75 150.75
329323 1 126.75 108.75 153.75
336116 1 105.75 123.75 156.75
336118 1 111.75 123.75 156.75
400105 1 72.75 123.75 186.75
425868 1 81.75 129.75 198.75
438985 1 72.75 141.75 204.75
451634 1 99.75 135.75 210.75
490337 1 48.75 147.75 228.75
503455 1 42.75 159.75 234.75
732998 1 113.25 128.25 104.25
751315 1 104.25 95.25 113.25
764677 1 110.25 116.25 119.25
764836 1 107.25 122.25 119.25
770513 1 98.25 95.25 122.25
771321 1 122.25 125.25 122.25
776836 1 107.25 92.25 125.25
777642 1 125.25 122.25 125.25
790440 1 119.25 122.25 131.25
809481 1 122.25 116.25 140.25
815632 1 95.25 107.25 143.25
822440 1 119.25 122.25 146.25
853797 1 110.25 98.25 161.25
918499 1 56.25 125.25 191.25
938185 1 74.25 143.25 200.25
950589 1 86.25 128.25 206.25
