ITEM: TIMESTEP
74000
ITEM: NUMBER OF ATOMS
33
ITEM: BOX BOUNDS pp pp pp
0 240
0 240
0 240
ITEM: ATOMS id type x y z c_myKE c_myPE
655882 1 126.148 115.06 66.0674 0.267408 -6.46681
655961 1 123.172 118.215 66.1711 0.160471 -6.54116
176035 1 104.15 123.354 83.0231 0.277481 -6.79017
239634 1 91.3667 101.08 113.819 0.515256 -8.03843
245954 1 94.6533 100.988 113.678 0.0273466 -8.1329
757870 1 86.5714 99.2569 118.335 0.207905 -7.34521
764190 1 88.2657 97.8058 116.85 0.0989568 -8.09058
764352 1 91.444 104.111 116.813 0.0987737 -8.06534
770590 1 88.4981 97.6659 120.248 0.478868 -7.64146
784827 1 78.87 154.699 129.63 0.266506 -6.5411
809162 1 124.447 102.235 142.483 0.0399054 -7.57062
303471 1 92.7559 104.385 143.861 0.133752 -6.65674
815641 1 122.945 104.275 143.702 0.0949432 -6.73656
815561 1 124.691 102.63 145.631 0.0532652 -6.94049
821882 1 124.334 99.022 148.744 0.148668 -6.77936
834026 1 73.6335 73.6301 153 0.0571596 -6.25654
834346 1 75.9973 88.3643 155.332 0.0664677 -6.09113
853701 1 59.7673 94.6075 164.615 0.0898348 -6.93271
189566 1 135.208 148.435 84.7477 0.0734194 -6.49933
226523 1 128.08 91.3167 103.961 0.0355444 -6.34982
246114 1 93.1511 102.438 112.07 0.100611 -7.32294
252272 1 91.318 97.4845 116.754 0.0149669 -8.01519
245951 1 86.7549 99.4989 115.445 0.160458 -8.0661
245871 1 89.9126 99.3205 115.295 0.0411144 -7.9511
764351 1 94.3208 100.609 116.419 0.233359 -7.97445
258672 1 91.0964 97.5615 119.489 0.313251 -7.61954
265566 1 141.742 119.029 121.734 0.0772408 -6.72189
284029 1 83.8388 87.7907 134.442 0.0564569 -6.35521
296117 1 107.533 58.8855 139.227 0.269872 -6.79919
302517 1 109.249 61.0029 139.081 0.113053 -7.43724
808274 1 102.766 65.3382 142.1 0.130165 -6.97997
802675 1 97.4226 99.3284 142.096 0.20539 -6.69574
802674 1 94.3376 102.327 142.238 0.0341702 -6.76745
