ITEM: TIMESTEP
74233
ITEM: NUMBER OF ATOMS
33
ITEM: BOX BOUNDS pp pp pp
0 240
0 240
0 240
ITEM: ATOMS id type x y z c_myKE c_myPE
656210 1 152.08 129.73 64.0146 0 -6.25358
672811 1 25.7225 27.6629 75.5034 0 -6.25444
674111 1 92.7053 78.6838 75.5037 0 -6.25437
744695 1 168.025 83.1354 108.654 0 -6.25394
739413 1 161.654 127.791 107.415 0 -6.25523
745544 1 69.0605 120.269 110.521 0 -6.54607
751945 1 72.3149 120.145 113.778 0 -6.82222
783480 1 120.171 101.08 131.131 0 -7.26283
789801 1 120.146 97.5305 134.225 0 -6.82795
278037 1 113.828 104.12 134.208 0 -7.09706
790609 1 147.276 124.918 133.815 0 -7.44561
291491 1 150.425 126.67 134.332 0 -7.4696
802188 1 81.874 79.9251 137.354 0 -6.25469
796928 1 149.724 123.359 137.374 0 -7.34676
808182 1 60.8039 65.928 142.493 0 -6.25504
827562 1 126.549 70.3708 152.073 0 -6.25475
892528 1 143.739 108.649 183.967 0 -6.25447
124286 1 137.72 99.4238 52.8375 0 -6.25432
143696 1 42.0254 109.003 62.3968 0 -6.25426
252057 1 172.815 91.1111 116.631 0 -6.26139
783799 1 115.191 105.561 129.283 0 -7.25403
278039 1 115.57 102.596 132.727 0 -7.39882
278038 1 112.403 105.862 132.637 0 -7.22467
284675 1 96.2452 113.43 132.59 0 -6.82802
277880 1 121.918 99.3695 135.758 0 -7.11775
284674 1 97.4962 115.343 134.517 0 -6.82122
803330 1 148.825 128.763 134.192 0 -7.72332
291569 1 145.383 131.317 135.796 0 -7.38964
296525 1 132.573 75.1534 138.954 0 -6.25587
297650 1 148.364 121.665 139.049 0 -6.82776
297807 1 143.993 128.282 139.063 0 -6.52389
803570 1 148.474 132.558 138.904 0 -6.32003
343094 1 163.247 147.286 163.242 0 -6.25514
