ITEM: TIMESTEP
79222
ITEM: NUMBER OF ATOMS
23
ITEM: BOX BOUNDS pp pp pp
0 240
0 240
0 240
ITEM: ATOMS id type x y z
221001 1 120.75 126.75 102.75
240434 1 99.75 135.75 111.75
252759 1 114.75 117.75 117.75
259000 1 117.75 111.75 120.75
265394 1 99.75 111.75 123.75
272109 1 84.75 123.75 126.75
278680 1 117.75 129.75 129.75
284671 1 90.75 114.75 132.75
720198 1 113.25 128.25 98.25
752278 1 113.25 131.25 113.25
758751 1 92.25 134.25 116.25
764437 1 110.25 107.25 119.25
764514 1 101.25 110.25 119.25
765073 1 98.25 131.25 119.25
770837 1 110.25 107.25 122.25
771634 1 101.25 137.25 122.25
771716 1 107.25 140.25 122.25
777478 1 113.25 116.25 125.25
777877 1 110.25 131.25 125.25
783635 1 104.25 107.25 128.25
783717 1 110.25 110.25 128.25
790200 1 119.25 113.25 131.25
809561 1 122.25 119.25 140.25
