ITEM: TIMESTEP
76849
ITEM: NUMBER OF ATOMS
45
ITEM: BOX BOUNDS pp pp pp
0 240
0 240
0 240
ITEM: ATOMS id type x y z
214113 1 96.75 108.75 99.75
214514 1 99.75 123.75 99.75
215556 1 105.75 162.75 99.75
220916 1 105.75 123.75 102.75
227955 1 102.75 147.75 105.75
233158 1 111.75 102.75 108.75
233238 1 111.75 105.75 108.75
234752 1 93.75 162.75 108.75
239475 1 102.75 99.75 111.75
239636 1 105.75 105.75 111.75
239793 1 96.75 111.75 111.75
239952 1 93.75 117.75 111.75
240753 1 96.75 147.75 111.75
241153 1 96.75 162.75 111.75
244846 1 135.75 60.75 114.75
246351 1 90.75 117.75 114.75
246352 1 93.75 117.75 114.75
254192 1 93.75 171.75 117.75
254350 1 87.75 177.75 117.75
254596 1 105.75 186.75 117.75
260115 1 102.75 153.75 120.75
260829 1 84.75 180.75 120.75
719802 1 125.25 113.25 98.25
732595 1 104.25 113.25 104.25
733794 1 101.25 158.25 104.25
734040 1 119.25 167.25 104.25
737883 1 128.25 71.25 107.25
738205 1 134.25 83.25 107.25
738911 1 92.25 110.25 107.25
745073 1 98.25 101.25 110.25
745315 1 104.25 110.25 110.25
745555 1 104.25 119.25 110.25
745556 1 107.25 119.25 110.25
746673 1 98.25 161.25 110.25
751552 1 95.25 104.25 113.25
751553 1 98.25 104.25 113.25
751794 1 101.25 113.25 113.25
751796 1 107.25 113.25 113.25
751878 1 113.25 116.25 113.25
752752 1 95.25 149.25 113.25
756692 1 155.25 56.25 116.25
756768 1 143.25 59.25 116.25
758192 1 95.25 113.25 116.25
765793 1 98.25 158.25 119.25
766031 1 92.25 167.25 119.25
