ITEM: TIMESTEP
76849
ITEM: NUMBER OF ATOMS
45
ITEM: BOX BOUNDS pp pp pp
0 240
0 240
0 240
ITEM: ATOMS id type x y z
123645 1 132.75 75.75 57.75
138846 1 135.75 165.75 63.75
157957 1 108.75 162.75 72.75
158598 1 111.75 186.75 72.75
170759 1 114.75 162.75 78.75
183478 1 111.75 159.75 84.75
188677 1 108.75 114.75 87.75
188758 1 111.75 117.75 87.75
194048 1 141.75 75.75 90.75
209386 1 75.75 171.75 96.75
225964 1 129.75 72.75 105.75
232284 1 129.75 69.75 108.75
232363 1 126.75 72.75 108.75
254277 1 108.75 174.75 117.75
259632 1 93.75 135.75 120.75
259633 1 96.75 135.75 120.75
259714 1 99.75 138.75 120.75
259715 1 102.75 138.75 120.75
266034 1 99.75 135.75 123.75
266036 1 105.75 135.75 123.75
317863 1 66.75 159.75 147.75
317948 1 81.75 162.75 147.75
635564 1 131.25 74.25 59.25
663477 1 110.25 161.25 71.25
682678 1 113.25 161.25 80.25
687956 1 107.25 119.25 83.25
694276 1 107.25 116.25 86.25
694357 1 110.25 119.25 86.25
706047 1 140.25 77.25 92.25
747788 1 83.25 203.25 110.25
765150 1 89.25 134.25 119.25
765231 1 92.25 137.25 119.25
765232 1 95.25 137.25 119.25
765233 1 98.25 137.25 119.25
765314 1 101.25 140.25 119.25
771551 1 92.25 134.25 122.25
771552 1 95.25 134.25 122.25
771553 1 98.25 134.25 122.25
771633 1 98.25 137.25 122.25
771634 1 101.25 137.25 122.25
771635 1 104.25 137.25 122.25
784893 1 38.25 155.25 128.25
797866 1 77.25 161.25 134.25
804181 1 62.25 158.25 137.25
848123 1 128.25 125.25 158.25
