ITEM: TIMESTEP
79183
ITEM: NUMBER OF ATOMS
41
ITEM: BOX BOUNDS pp pp pp
0 240
0 240
0 240
ITEM: ATOMS id type x y z
182198 1 111.75 111.75 84.75
188599 1 114.75 111.75 87.75
207716 1 105.75 108.75 96.75
220436 1 105.75 105.75 102.75
220675 1 102.75 114.75 102.75
220755 1 102.75 117.75 102.75
221875 1 102.75 159.75 102.75
239469 1 84.75 99.75 111.75
241061 1 60.75 159.75 111.75
241387 1 78.75 171.75 111.75
246998 1 111.75 141.75 114.75
247621 1 60.75 165.75 114.75
254021 1 60.75 165.75 117.75
267297 1 48.75 183.75 123.75
273458 1 51.75 174.75 126.75
285073 1 96.75 129.75 132.75
285074 1 99.75 129.75 132.75
286424 1 69.75 180.75 132.75
286747 1 78.75 192.75 132.75
299384 1 69.75 186.75 138.75
312023 1 66.75 180.75 144.75
325145 1 72.75 192.75 150.75
331146 1 75.75 177.75 153.75
687638 1 113.25 107.25 83.25
713158 1 113.25 104.25 95.25
713239 1 116.25 107.25 95.25
719794 1 101.25 113.25 98.25
726116 1 107.25 110.25 101.25
726118 1 113.25 110.25 101.25
732755 1 104.25 119.25 104.25
765702 1 65.25 155.25 119.25
766507 1 80.25 185.25 119.25
772419 1 56.25 167.25 122.25
772907 1 80.25 185.25 122.25
779390 1 89.25 188.25 125.25
792101 1 62.25 185.25 131.25
797312 1 95.25 140.25 134.25
798265 1 74.25 176.25 134.25
798664 1 71.25 191.25 134.25
805218 1 53.25 197.25 137.25
811618 1 53.25 197.25 140.25
