ITEM: TIMESTEP
75000
ITEM: NUMBER OF ATOMS
36
ITEM: BOX BOUNDS pp pp pp
0 240
0 240
0 240
ITEM: ATOMS id type x y z
214345 1 72.75 117.75 99.75
240272 1 93.75 129.75 111.75
251324 1 129.75 63.75 117.75
251869 1 84.75 84.75 117.75
251875 1 102.75 84.75 117.75
258512 1 93.75 93.75 120.75
264038 1 111.75 60.75 123.75
264275 1 102.75 69.75 123.75
264912 1 93.75 93.75 123.75
265076 1 105.75 99.75 123.75
265950 1 87.75 132.75 123.75
270275 1 102.75 54.75 126.75
270989 1 84.75 81.75 126.75
271074 1 99.75 84.75 126.75
271075 1 102.75 84.75 126.75
290670 1 87.75 99.75 135.75
290676 1 105.75 99.75 135.75
296512 1 93.75 78.75 138.75
682030 1 89.25 137.25 80.25
738104 1 71.25 80.25 107.25
763878 1 113.25 86.25 119.25
763953 1 98.25 89.25 119.25
763954 1 101.25 89.25 119.25
770354 1 101.25 89.25 122.25
776434 1 101.25 77.25 125.25
776435 1 104.25 77.25 125.25
776514 1 101.25 80.25 125.25
776515 1 104.25 80.25 125.25
776516 1 107.25 80.25 125.25
776674 1 101.25 86.25 125.25
776675 1 104.25 86.25 125.25
782751 1 92.25 74.25 128.25
789318 1 113.25 80.25 131.25
789395 1 104.25 83.25 131.25
802677 1 110.25 101.25 137.25
815152 1 95.25 89.25 143.25
