ITEM: TIMESTEP
79000
ITEM: NUMBER OF ATOMS
38
ITEM: BOX BOUNDS pp pp pp
0 240
0 240
0 240
ITEM: ATOMS id type x y z c_myKE c_myPE
750766 1 139.084 72.6129 111.85 0.246299 -6.40261
757887 1 142.635 101.401 115.019 0.0676065 -6.89171
258045 1 133.032 72.4383 118.241 0.117925 -6.43736
776043 1 129.747 56.748 124.494 0.137777 -6.54053
814688 1 143.61 66.9626 145.688 0.107645 -6.95009
316847 1 137.275 119.964 147.121 0.00777808 0
816214 1 163.005 129.497 145.635 0.0248174 -6.26888
822694 1 162.607 132.437 148.682 0.0763723 -7.04655
822773 1 159.897 136.045 148.869 0.203724 -7.53477
854054 1 163.121 105.896 162.575 0.107222 -7.27095
848375 1 165.943 136.007 161.386 0.382104 -6.62461
348535 1 163.256 107.951 164.369 0.309086 -6.68857
899246 1 137.54 123.059 187.136 0.0468296 -7.42395
912544 1 196.787 142.765 193.468 0.0277123 -6.39139
944298 1 175.745 132.786 207.791 0.0829084 -6.1807
950930 1 152.254 142.479 210.557 0.362583 -7.62122
706125 1 132.804 77.3027 91.313 0.0844032 -5.98501
200604 1 129.506 80.1666 91.2274 0.0453621 -6.77195
213162 1 124.969 68.9314 97.5792 0.0239329 -5.83056
227076 1 105.851 114.93 105.81 0.119656 -5.81609
245246 1 137.551 73.8355 113.639 0.202919 -7.45289
271816 1 167.676 109.011 124.945 0.120167 -5.80159
303651 1 148.357 102.684 142.171 0.111085 -6.36367
815568 1 142.331 105.896 142.397 0.129207 -7.71037
303730 1 145.49 108.986 142.045 0.661747 -7.11733
815725 1 142.245 105.815 145.178 0.0733639 -7.02027
809088 1 145.193 105.974 145.512 0.0589905 -7.48095
304294 1 161.065 131.211 144.014 0.0410175 -7.33444
335887 1 140.751 112.917 155.164 0.102785 -6.13463
342056 1 169.617 103.883 163.297 0.0789431 -6.60531
860454 1 163.2 104.041 166.261 0.0519293 -6.77051
367641 1 121.846 104.195 174.223 0.0512026 -6.4594
373964 1 131.172 102.677 179.162 0.290618 -6.31779
380849 1 142.403 121.648 183.087 0.286805 -6.16843
438930 1 150.489 140.976 209.082 0.210769 -7.3389
439010 1 150.762 144.197 209.247 0.0543752 -7.27652
476772 1 156.863 118.706 230.163 0.54113 -6.96883
483252 1 156.828 121.831 233.498 0.119443 -6.94973
