ITEM: TIMESTEP
77000
ITEM: NUMBER OF ATOMS
39
ITEM: BOX BOUNDS pp pp pp
0 240
0 240
0 240
ITEM: ATOMS id type x y z
214441 1 120.75 120.75 99.75
220761 1 120.75 117.75 102.75
220841 1 120.75 120.75 102.75
220921 1 120.75 123.75 102.75
226447 1 138.75 90.75 105.75
226774 1 159.75 102.75 105.75
238602 1 123.75 66.75 111.75
252843 1 126.75 120.75 117.75
257389 1 84.75 51.75 120.75
285088 1 141.75 129.75 132.75
291487 1 138.75 129.75 135.75
309818 1 171.75 96.75 144.75
316298 1 171.75 99.75 147.75
322695 1 162.75 99.75 150.75
329175 1 162.75 102.75 153.75
399261 1 180.75 90.75 186.75
407170 1 147.75 147.75 189.75
706599 1 116.25 98.25 92.25
725619 1 56.25 92.25 101.25
732759 1 116.25 119.25 104.25
732761 1 122.25 119.25 104.25
739160 1 119.25 119.25 107.25
739465 1 74.25 131.25 107.25
739466 1 77.25 131.25 107.25
739546 1 77.25 134.25 107.25
745865 1 74.25 131.25 110.25
765238 1 113.25 137.25 119.25
782615 1 164.25 68.25 128.25
790537 1 170.25 125.25 131.25
802465 1 194.25 92.25 137.25
802544 1 191.25 95.25 137.25
821738 1 173.25 95.25 146.25
828294 1 161.25 101.25 149.25
841739 1 176.25 125.25 155.25
847901 1 182.25 116.25 158.25
904612 1 155.25 83.25 185.25
904781 1 182.25 89.25 185.25
912119 1 116.25 125.25 188.25
916530 1 149.25 50.25 191.25
