ITEM: TIMESTEP
79000
ITEM: NUMBER OF ATOMS
33
ITEM: BOX BOUNDS pp pp pp
0 240
0 240
0 240
ITEM: ATOMS id type x y z
111563 1 126.75 102.75 51.75
111642 1 123.75 105.75 51.75
187395 1 102.75 66.75 87.75
200760 1 117.75 87.75 93.75
214203 1 126.75 111.75 99.75
226275 1 102.75 84.75 105.75
227250 1 147.75 120.75 105.75
227330 1 147.75 123.75 105.75
289800 1 117.75 66.75 135.75
310143 1 186.75 108.75 144.75
310614 1 159.75 126.75 144.75
324847 1 138.75 180.75 150.75
331426 1 195.75 186.75 153.75
692995 1 104.25 68.25 86.25
693076 1 107.25 71.25 86.25
699394 1 101.25 68.25 89.25
713483 1 128.25 116.25 95.25
718200 1 119.25 53.25 98.25
719811 1 152.25 113.25 98.25
719892 1 155.25 116.25 98.25
726212 1 155.25 113.25 101.25
726529 1 146.25 125.25 101.25
732849 1 146.25 122.25 104.25
739329 1 146.25 125.25 107.25
745876 1 107.25 131.25 110.25
750367 1 140.25 59.25 113.25
759250 1 149.25 152.25 116.25
771830 1 209.25 143.25 122.25
778310 1 209.25 146.25 125.25
815662 1 185.25 107.25 143.25
815742 1 185.25 110.25 143.25
823334 1 161.25 155.25 146.25
843345 1 194.25 185.25 155.25
