ITEM: TIMESTEP
81172
ITEM: NUMBER OF ATOMS
24
ITEM: BOX BOUNDS pp pp pp
0 240
0 240
0 240
ITEM: ATOMS id type x y z
157734 1 159.75 153.75 72.75
171568 1 141.75 192.75 78.75
227789 1 84.75 141.75 105.75
228036 1 105.75 150.75 105.75
234437 1 108.75 150.75 108.75
239243 1 126.75 90.75 111.75
253170 1 147.75 132.75 117.75
253171 1 150.75 132.75 117.75
253251 1 150.75 135.75 117.75
286608 1 141.75 186.75 132.75
291564 1 129.75 132.75 135.75
322607 1 138.75 96.75 150.75
329652 1 153.75 120.75 153.75
329731 1 150.75 123.75 153.75
330838 1 111.75 165.75 153.75
682545 1 194.25 155.25 80.25
758770 1 149.25 134.25 116.25
758850 1 149.25 137.25 116.25
758990 1 89.25 143.25 116.25
765090 1 149.25 131.25 119.25
765171 1 152.25 134.25 119.25
784379 1 176.25 134.25 128.25
798121 1 122.25 170.25 134.25
893159 1 116.25 134.25 179.25
