ITEM: TIMESTEP
79681
ITEM: NUMBER OF ATOMS
38
ITEM: BOX BOUNDS pp pp pp
0 240
0 240
0 240
ITEM: ATOMS id type x y z c_myKE c_myPE
124530 1 152.085 110.57 53.1836 0 -6.24761
649170 1 150.159 104.173 60.7712 0 -6.28959
137722 1 126.359 124.637 59.4932 0 -6.64518
649723 1 129.805 124.827 62.6196 0 -7.17894
131484 1 126.355 127.865 62.9171 0 -7.71362
656204 1 129.655 131.06 62.6829 0 -7.97495
649966 1 132.936 134.243 62.6974 0 -8.29262
144448 1 136.057 134.305 62.808 0 -7.54459
662602 1 126.405 128.002 65.845 0 -8.23931
662682 1 123.334 131.09 65.9414 0 -7.98495
144283 1 126.491 131.123 65.88 0 -8.77631
150765 1 129.624 131.184 65.854 0 -8.56283
656366 1 132.738 134.288 65.8777 0 -8.55784
138046 1 136.098 137.293 65.8273 0 -7.61592
163484 1 126.469 131.115 69.009 0 -8.53021
656284 1 129.66 134.3 68.9608 0 -8.56412
163566 1 132.787 137.548 68.9882 0 -7.99306
675481 1 123.29 134.313 72.176 0 -7.71678
675564 1 126.5 134.269 72.1623 0 -8.46915
700758 1 113.731 121.327 84.9932 0 -6.27593
708127 1 139.298 159.676 91.4358 0 -6.25843
733254 1 164.829 137.333 104.216 0 -6.2553
643483 1 128.11 129.501 64.2678 0 -8.65098
649725 1 131.311 132.631 64.2145 0 -8.37119
131566 1 134.333 135.854 64.3155 0 -8.36692
149949 1 83.4923 100.691 67.5374 0 -6.25556
656282 1 128.016 132.711 67.4433 0 -8.5587
150844 1 131.262 135.92 67.4431 0 -8.51686
150845 1 134.376 135.891 67.4831 0 -8.61017
675482 1 124.866 132.702 70.6032 0 -8.33692
157001 1 129.477 131.195 72.0138 0 -8.75249
163563 1 128.181 135.894 70.5969 0 -8.39122
157165 1 131.208 135.938 70.5626 0 -8.36352
169962 1 124.895 135.699 73.9042 0 -7.50905
220378 1 174.062 100.664 102.638 0 -6.25448
253502 1 188.752 147.274 118.567 0 -6.25324
272440 1 116.627 137.707 126.184 0 -6.25578
271569 1 145.333 102.616 129.411 0 -6.25201
