ITEM: TIMESTEP
79166
ITEM: NUMBER OF ATOMS
30
ITEM: BOX BOUNDS pp pp pp
0 240
0 240
0 240
ITEM: ATOMS id type x y z
175868 1 81.75 114.75 81.75
213014 1 159.75 66.75 99.75
214112 1 93.75 108.75 99.75
219574 1 159.75 72.75 102.75
227000 1 117.75 111.75 105.75
233321 1 120.75 108.75 108.75
239883 1 126.75 114.75 111.75
239957 1 108.75 117.75 111.75
239962 1 123.75 117.75 111.75
239963 1 126.75 117.75 111.75
240046 1 135.75 120.75 111.75
246201 1 120.75 111.75 114.75
252596 1 105.75 111.75 117.75
252838 1 111.75 120.75 117.75
278447 1 138.75 120.75 129.75
719400 1 119.25 98.25 98.25
725096 1 167.25 71.25 101.25
725962 1 125.25 104.25 101.25
732515 1 104.25 110.25 104.25
737572 1 155.25 59.25 107.25
739244 1 131.25 122.25 107.25
744134 1 161.25 65.25 110.25
751804 1 131.25 113.25 113.25
757172 1 155.25 74.25 116.25
758041 1 122.25 107.25 116.25
758203 1 128.25 113.25 116.25
758277 1 110.25 116.25 116.25
758363 1 128.25 119.25 116.25
758518 1 113.25 125.25 116.25
783886 1 137.25 116.25 128.25
