ITEM: TIMESTEP
79000
ITEM: NUMBER OF ATOMS
30
ITEM: BOX BOUNDS pp pp pp
0 240
0 240
0 240
ITEM: ATOMS id type x y z c_myKE c_myPE
105404 1 133.308 111.946 43.8517 0.0553728 -6.70569
700268 1 80.08 99.0165 88.5956 0.0433415 -6.98262
700349 1 83.1843 102.361 88.5891 0.256121 -7.11273
711571 1 153.523 38.5492 92.7722 0.107646 -6.8312
711652 1 156.523 41.6142 92.62 0.0459887 -6.7484
706748 1 80.0361 102.448 91.7128 0.13657 -6.73231
725977 1 172.531 104.432 99.1378 0.518795 -6.66983
725006 1 137.328 66.9925 101.193 0.0363895 -6.92441
731484 1 132.824 69.2157 102.3 0.489009 -6.57855
220127 1 140.83 94.6293 101.219 0.288846 -6.45685
732127 1 142.583 95.8403 102.501 0.0710268 -7.66717
771574 1 164.685 134.108 123.29 0.0406286 -7.61179
777814 1 166.203 127.009 127.589 0.0708874 -6.78587
777894 1 162.486 129.648 127.909 0.201612 -7.49195
265894 1 164.528 130.709 126.367 0.196566 -7.49698
781974 1 162.84 38.8957 129.616 0.0924905 -6.75438
802910 1 86.3566 110.923 139.248 0.618194 -6.86454
809404 1 132.869 114.335 142.552 0.0564102 -6.29183
833733 1 159.442 61.3252 155.118 0.0363017 -6.75145
182043 1 128.195 106.097 81.4928 0.121588 -6.40686
213166 1 137.354 70.4701 97.3665 0.157778 -7.12898
207095 1 167.254 84.9601 96.2567 0.141078 -5.35847
219646 1 137.473 74.0155 100.864 0.0516068 -7.11696
213888 1 142.324 96.3362 99.6095 0.0136183 -6.7468
244211 1 153.886 32.2447 115.286 0.261007 -6.61189
259412 1 161.514 128.06 122.971 0.282061 -7.59056
771495 1 164.513 131.204 123.174 0.0635358 -7.70991
265813 1 161.23 124.909 126.04 0.179414 -7.04074
272374 1 162.972 132.673 128.265 0.0199503 -7.32736
336196 1 103.997 128.658 159.196 0.26014 -5.75423
