ITEM: TIMESTEP
77170
ITEM: NUMBER OF ATOMS
43
ITEM: BOX BOUNDS pp pp pp
0 240
0 240
0 240
ITEM: ATOMS id type x y z c_myKE c_myPE
637879 1 115.021 164.817 54.4317 0 -6.82079
644199 1 114.914 161.563 57.6905 0 -6.53409
150355 1 96.0676 118.302 68.9655 0 -7.22246
156754 1 99.152 118.244 72.2603 0 -7.95457
668754 1 99.0923 121.482 72.2868 0 -8.47851
163315 1 102.138 121.372 72.393 0 -7.6758
150594 1 95.7712 124.592 72.2051 0 -7.62827
675074 1 99.1114 121.443 75.4923 0 -8.03695
688512 1 94.6307 140.537 81.8499 0 -6.26033
694371 1 156.486 116.968 85.0874 0 -6.25444
252592 1 91.4859 118.249 113.776 0 -7.9959
745552 1 94.5292 118.412 113.602 0 -7.22034
246512 1 91.3488 118.36 116.932 0 -8.34144
771070 1 88.2397 118.248 119.996 0 -7.24733
790596 1 107.577 128.098 131.297 0 -7.0601
291477 1 104.335 130.603 129.874 0 -6.78835
284916 1 104.351 126.675 133.824 0 -6.76673
808920 1 118.337 92.4441 140.68 0 -7.65794
809001 1 121.223 95.8885 140.423 0 -7.40778
815321 1 121.552 92.7243 143.874 0 -6.4709
815400 1 118.078 95.8752 143.562 0 -7.4354
848277 1 108.716 132.861 161.758 0 -6.54804
848356 1 105.458 136.115 161.628 0 -6.81879
86917 1 107.046 140.911 33.6809 0 -6.25408
629558 1 110.245 86.6762 51.5839 0 -6.25592
643560 1 121.789 132.585 57.9359 0 -6.25228
156833 1 94.3703 119.968 70.5883 0 -7.63405
662353 1 97.618 119.988 70.583 0 -8.09825
662433 1 97.5321 123.074 70.674 0 -8.22812
675153 1 97.4513 123.125 73.8173 0 -7.97641
188264 1 67.498 97.4632 84.7311 0 -6.25772
239456 1 40.0606 97.4872 112.204 0 -6.25421
764590 1 89.9234 116.579 115.246 0 -7.29884
758272 1 92.8689 119.984 115.311 0 -8.15416
758753 1 93.1121 122.867 115.349 0 -7.63948
758429 1 89.8079 119.98 118.507 0 -8.05461
259153 1 94.3249 118.5 119.84 0 -8.17812
278512 1 89.833 123.084 118.558 0 -7.71895
246592 1 89.7938 119.949 121.735 0 -7.90995
266515 1 100.662 154.923 123.012 0 -6.8195
272995 1 100.535 158.175 126.27 0 -6.54886
303481 1 119.807 97.4528 142.153 0 -7.10762
335467 1 77.0925 97.4979 160.049 0 -6.25385
