ITEM: TIMESTEP
78215
ITEM: NUMBER OF ATOMS
28
ITEM: BOX BOUNDS pp pp pp
0 240
0 240
0 240
ITEM: ATOMS id type x y z
232439 1 114.75 75.75 108.75
238840 1 117.75 75.75 111.75
238919 1 114.75 78.75 111.75
246047 1 138.75 105.75 114.75
265490 1 147.75 114.75 123.75
283863 1 66.75 84.75 132.75
283944 1 69.75 87.75 132.75
290183 1 66.75 81.75 135.75
290185 1 72.75 81.75 135.75
296505 1 72.75 78.75 138.75
296584 1 69.75 81.75 138.75
347628 1 81.75 75.75 162.75
366044 1 129.75 45.75 171.75
686824 1 71.25 77.25 83.25
686903 1 68.25 80.25 83.25
687315 1 104.25 95.25 83.25
693223 1 68.25 77.25 86.25
744847 1 140.25 92.25 110.25
758046 1 137.25 107.25 116.25
758125 1 134.25 110.25 116.25
789304 1 71.25 80.25 131.25
795782 1 65.25 83.25 134.25
802023 1 68.25 77.25 137.25
814115 1 104.25 50.25 143.25
820664 1 71.25 56.25 146.25
834821 1 62.25 107.25 152.25
858835 1 104.25 47.25 164.25
871291 1 32.25 35.25 170.25
