ITEM: TIMESTEP
83000
ITEM: NUMBER OF ATOMS
39
ITEM: BOX BOUNDS pp pp pp
0 240
0 240
0 240
ITEM: ATOMS id type x y z
207718 1 111.75 108.75 96.75
207799 1 114.75 111.75 96.75
219894 1 159.75 84.75 102.75
219974 1 159.75 87.75 102.75
226135 1 162.75 78.75 105.75
226214 1 159.75 81.75 105.75
226294 1 159.75 84.75 105.75
226295 1 162.75 84.75 105.75
226375 1 162.75 87.75 105.75
226454 1 159.75 90.75 105.75
227097 1 168.75 114.75 105.75
232694 1 159.75 84.75 108.75
232696 1 165.75 84.75 108.75
232775 1 162.75 87.75 108.75
239096 1 165.75 84.75 111.75
258193 1 96.75 81.75 120.75
258430 1 87.75 90.75 120.75
310515 1 102.75 123.75 144.75
335733 1 156.75 108.75 156.75
335806 1 135.75 111.75 156.75
366525 1 132.75 63.75 171.75
648188 1 83.25 68.25 65.25
731813 1 158.25 83.25 104.25
731894 1 161.25 86.25 104.25
732054 1 161.25 92.25 104.25
738055 1 164.25 77.25 107.25
738135 1 164.25 80.25 107.25
738215 1 164.25 83.25 107.25
738375 1 164.25 89.25 107.25
738454 1 161.25 92.25 107.25
744615 1 164.25 83.25 110.25
770431 1 92.25 92.25 122.25
770510 1 89.25 95.25 122.25
776830 1 89.25 92.25 125.25
783703 1 68.25 110.25 128.25
803477 1 110.25 131.25 137.25
847726 1 137.25 110.25 158.25
968922 1 125.25 95.25 215.25
975321 1 122.25 95.25 218.25
