ITEM: TIMESTEP
83000
ITEM: NUMBER OF ATOMS
28
ITEM: BOX BOUNDS pp pp pp
0 240
0 240
0 240
ITEM: ATOMS id type x y z
232994 1 99.75 96.75 108.75
239315 1 102.75 93.75 111.75
252108 1 81.75 93.75 117.75
329478 1 111.75 114.75 153.75
381567 1 138.75 147.75 177.75
413241 1 120.75 135.75 192.75
418758 1 111.75 102.75 195.75
426119 1 114.75 138.75 198.75
438359 1 114.75 117.75 204.75
445242 1 123.75 135.75 207.75
712670 1 89.25 86.25 95.25
731706 1 77.25 80.25 104.25
738434 1 101.25 92.25 107.25
738589 1 86.25 98.25 107.25
751065 1 74.25 86.25 113.25
757549 1 86.25 89.25 116.25
796594 1 101.25 113.25 134.25
828440 1 119.25 107.25 149.25
860123 1 128.25 95.25 164.25
898843 1 128.25 107.25 182.25
905796 1 107.25 128.25 185.25
918364 1 131.25 119.25 191.25
918838 1 113.25 137.25 191.25
918917 1 110.25 140.25 191.25
919081 1 122.25 146.25 191.25
937801 1 122.25 128.25 200.25
945000 1 119.25 158.25 203.25
957081 1 122.25 131.25 209.25
