ITEM: TIMESTEP
79163
ITEM: NUMBER OF ATOMS
28
ITEM: BOX BOUNDS pp pp pp
0 240
0 240
0 240
ITEM: ATOMS id type x y z c_myKE c_myPE
707318 1 111.851 127.898 88.2754 0 -6.93743
188839 1 118.172 121.571 91.2933 0 -7.80179
201561 1 121.471 121.506 91.6399 0 -7.56531
195241 1 121.432 124.641 91.4698 0 -7.41559
713489 1 145.669 115.041 94.628 0 -6.82097
207969 1 143.751 116.962 95.8848 0 -6.81951
777871 1 89.6298 133.03 124.675 0 -6.508
772207 1 142.49 159.676 123.334 0 -6.254
788361 1 120.178 40.4174 130.976 0 -6.2547
790752 1 92.6977 136.076 130.945 0 -7.08092
106123 1 128.128 140.993 43.2708 0 -6.90726
106202 1 125.028 144.089 43.2718 0 -6.91019
112522 1 124.943 140.891 46.6051 0 -6.60007
182439 1 116.758 126.2 83.1963 0 -6.72544
694359 1 116.524 123.03 86.7094 0 -7.33092
188988 1 78.3414 126.193 86.6666 0 -6.25519
707239 1 113.639 126.237 86.5042 0 -7.31316
201640 1 120.018 119.758 89.8514 0 -7.10225
201641 1 121.752 121.63 94.3733 0 -7.1261
227226 1 75.1437 121.767 103.879 0 -6.25583
251179 1 179.187 52.8359 118.568 0 -6.25455
258118 1 112.194 75.1566 124.953 0 -6.25393
266518 1 113.433 156.842 124.932 0 -6.25423
278752 1 91.2143 134.562 129.205 0 -7.39465
278831 1 87.7836 137.496 129.581 0 -7.27349
273222 1 59.2121 167.668 128.136 0 -6.25453
285232 1 91.1112 137.817 132.361 0 -7.32695
302599 1 115.391 65.5843 142.155 0 -6.25488
