ITEM: TIMESTEP
77372
ITEM: NUMBER OF ATOMS
24
ITEM: BOX BOUNDS pp pp pp
0 240
0 240
0 240
ITEM: ATOMS id type x y z
168040 1 117.75 60.75 78.75
207494 1 159.75 99.75 96.75
207805 1 132.75 111.75 96.75
214995 1 102.75 141.75 99.75
227404 1 129.75 126.75 105.75
260044 1 129.75 150.75 120.75
260124 1 129.75 153.75 120.75
278441 1 120.75 120.75 129.75
667962 1 125.25 89.25 74.25
688938 1 173.25 155.25 83.25
705558 1 113.25 59.25 92.25
705639 1 116.25 62.25 92.25
713325 1 134.25 110.25 95.25
725466 1 77.25 86.25 101.25
726525 1 134.25 125.25 101.25
726604 1 131.25 128.25 101.25
731946 1 77.25 89.25 104.25
732845 1 134.25 122.25 104.25
732924 1 131.25 125.25 104.25
733003 1 128.25 128.25 104.25
765643 1 128.25 152.25 119.25
772124 1 131.25 155.25 122.25
772203 1 128.25 158.25 122.25
778523 1 128.25 155.25 125.25
