ITEM: TIMESTEP
107000
ITEM: NUMBER OF ATOMS
43
ITEM: BOX BOUNDS pp pp pp
0 240
0 240
0 240
ITEM: ATOMS id type x y z c_myKE c_myPE
680195 1 104.326 63.9109 76.7599 0.0308238 -6.02496
728389 1 210.684 197.832 99.1597 0.170299 -6.23527
739002 1 124.952 111.639 107.245 0.359502 -6.75473
745483 1 127.519 115.093 108.799 0.145391 -6.72597
745548 1 81.8565 118.341 108.713 0.241334 -7.73678
746365 1 136.237 150.011 108.648 0.150092 -6.65985
751947 1 78.7113 118.308 112.069 0.301768 -6.56486
757721 1 120.124 94.5884 116.677 0.0511908 -5.87038
771966 1 137.276 150.131 121.424 0.138522 -7.45078
772047 1 140.753 153.061 121.808 0.0157086 -6.54879
773098 1 177.604 197.933 123.616 0.151619 -6.0553
780229 1 209.606 226.712 126.59 0.0449611 -6.74906
285076 1 104.295 131.193 129.618 0.0724518 -6.52339
802665 1 69.2912 100.964 136.049 0.32003 -6.01477
810441 1 121.298 154.758 140.585 0.0535906 -6.9853
811105 1 201.107 178.703 140.416 0.124118 -6.66688
811593 1 225.371 198.119 140.676 0.409652 -6.40696
326075 1 231.929 232.041 152.248 0.0856411 -6.41752
840672 1 92.8468 83.2063 156.587 0.192316 -6.29778
329943 1 63.6476 136.219 156.246 0.0814639 -6.91578
854048 1 143.601 105.447 159.541 0.0996026 -6.76678
873315 1 102.741 110.635 174.364 0.377936 -6.36008
175333 1 159.722 91.242 80.4887 0.0902513 -6.4658
745628 1 81.5843 121.513 112.153 0.306609 -6.58711
759087 1 140.577 147.929 113.561 0.294156 -5.21407
767915 1 225.875 -1.4978 118.882 0.74838 12.0119
765307 1 77.4395 144.096 118.551 0.210051 -6.21
266367 1 139.129 148.365 123.332 0.226178 -7.07163
274630 1 213.98 221.816 128.095 0.160913 -7.03418
284509 1 83.2732 107.258 132.615 0.06987 -7.55824
284508 1 81.4973 109.279 132.699 0.098119 -7.44828
787035 1 228.654 243.011 132.652 0.298377 -6.23169
796427 1 80.7314 105.856 136.145 0.244703 -6.56693
796508 1 83.4297 108.996 134.657 0.238946 -7.13916
286947 1 204.862 202.66 135.89 0.0718812 -5.96347
298522 1 123.138 156.476 138.924 0.122047 -5.99431
298286 1 137.917 147.264 140.939 0.0888811 -7.01557
304766 1 137.714 150.583 144.095 0.203237 -7.24127
310103 1 64.1807 108.906 147.621 0.325986 -6.59476
335727 1 139.213 106.736 158.239 0.0889513 -6.02378
335946 1 72.0592 118.696 157.701 0.0799142 -6.34638
330704 1 195.266 163.264 156.761 0.0481753 -6.90607
361395 1 100.562 112.272 172.647 0.131026 -6.74123
