ITEM: TIMESTEP
79000
ITEM: NUMBER OF ATOMS
25
ITEM: BOX BOUNDS pp pp pp
0 240
0 240
0 240
ITEM: ATOMS id type x y z c_myKE c_myPE
694216 1 170.944 111.833 85.0961 0.0219908 -6.67319
701173 1 161.48 135.954 86.1741 0.0150556 -6.11473
731872 1 92.889 85.7985 104.319 0.0378644 -6.82253
265240 1 120.189 107.479 112.139 0.133785 -6.63113
738838 1 123.129 110.632 112.051 0.076575 -8.18295
758042 1 123.444 107.413 115.55 0.259028 -7.32564
758198 1 117.133 110.678 115.602 0.0922787 -7.57751
732601 1 120.259 110.482 115.32 0.414436 -8.10547
758038 1 123.255 110.499 115.251 0.0927304 -8.18686
745482 1 127.858 112.024 113.794 0.261096 -6.96252
246040 1 120.033 113.618 115.222 0.0562622 -7.19602
297402 1 121.659 110.605 137.501 0.0996685 -6.37413
297400 1 118.292 113.782 137.441 0.342184 -6.66679
816213 1 159.731 127.995 143.956 0.289168 -6.28064
834114 1 99.2645 77.0659 153.206 0.17578 -7.41283
694294 1 166.151 116.552 83.4416 0.126091 -6.94512
758120 1 118.505 109.098 113.619 0.0383761 -7.84113
745321 1 121.818 112.244 116.861 0.0745222 -7.90422
777401 1 126.155 113.705 115.358 0.121398 -6.933
260440 1 116.85 167.59 121.744 0.107718 -6.39211
776358 1 116.418 70.3912 129.303 0.659477 -5.85246
783641 1 123.155 109.052 132.712 0.148598 -6.60626
284602 1 122.995 105.876 135.9 0.314994 -6.53323
334996 1 104.014 78.5185 158.061 0.103526 -6.60581
413079 1 113.24 131.52 198.598 0.267344 -7.01899
