ITEM: TIMESTEP
80363
ITEM: NUMBER OF ATOMS
25
ITEM: BOX BOUNDS pp pp pp
0 240
0 240
0 240
ITEM: ATOMS id type x y z
189254 1 159.75 135.75 87.75
226352 1 93.75 87.75 105.75
239721 1 120.75 108.75 111.75
239801 1 120.75 111.75 111.75
246122 1 123.75 108.75 114.75
246200 1 117.75 111.75 114.75
246201 1 120.75 111.75 114.75
246281 1 120.75 114.75 114.75
277160 1 117.75 72.75 129.75
284522 1 123.75 108.75 132.75
291001 1 120.75 111.75 135.75
291080 1 117.75 114.75 135.75
322114 1 99.75 78.75 150.75
328515 1 102.75 78.75 153.75
419558 1 111.75 132.75 195.75
694216 1 167.25 113.25 86.25
694295 1 164.25 116.25 86.25
751721 1 122.25 110.25 113.25
758121 1 122.25 110.25 116.25
758122 1 125.25 110.25 116.25
758201 1 122.25 113.25 116.25
764521 1 122.25 110.25 119.25
772359 1 116.25 164.25 122.25
796441 1 122.25 107.25 134.25
816213 1 158.25 128.25 143.25
