ITEM: TIMESTEP
80296
ITEM: NUMBER OF ATOMS
42
ITEM: BOX BOUNDS pp pp pp
0 240
0 240
0 240
ITEM: ATOMS id type x y z
232754 1 99.75 87.75 108.75
241320 1 117.75 168.75 111.75
252194 1 99.75 96.75 117.75
252274 1 99.75 99.75 117.75
252745 1 72.75 117.75 117.75
252993 1 96.75 126.75 117.75
258675 1 102.75 99.75 120.75
265552 1 93.75 117.75 123.75
271629 1 84.75 105.75 126.75
271867 1 78.75 114.75 126.75
273164 1 129.75 162.75 126.75
273482 1 123.75 174.75 126.75
277796 1 105.75 96.75 129.75
278189 1 84.75 111.75 129.75
279882 1 123.75 174.75 129.75
284671 1 90.75 114.75 132.75
285644 1 129.75 150.75 132.75
303791 1 90.75 111.75 141.75
311405 1 132.75 156.75 144.75
311564 1 129.75 162.75 144.75
337484 1 129.75 174.75 156.75
343882 1 123.75 174.75 159.75
356445 1 132.75 165.75 165.75
414373 1 156.75 177.75 192.75
764833 1 98.25 122.25 119.25
764993 1 98.25 128.25 119.25
770677 1 110.25 101.25 122.25
770908 1 83.25 110.25 122.25
770989 1 86.25 113.25 122.25
771151 1 92.25 119.25 122.25
777150 1 89.25 104.25 125.25
777388 1 83.25 113.25 125.25
778922 1 125.25 170.25 125.25
783633 1 98.25 107.25 128.25
783950 1 89.25 119.25 128.25
783951 1 92.25 119.25 128.25
789795 1 104.25 98.25 131.25
804043 1 128.25 152.25 137.25
816844 1 131.25 152.25 143.25
862044 1 131.25 167.25 164.25
862200 1 119.25 173.25 164.25
894534 1 161.25 185.25 179.25
