ITEM: TIMESTEP
77263
ITEM: NUMBER OF ATOMS
42
ITEM: BOX BOUNDS pp pp pp
0 240
0 240
0 240
ITEM: ATOMS id type x y z c_myKE c_myPE
649979 1 178.845 134.174 62.7512 0 -6.25447
661896 1 171.224 101.024 67.1813 0 -6.25525
655641 1 121.426 107.413 65.9315 0 -6.25554
662789 1 212.691 134.173 69.1301 0 -6.25502
667895 1 166.089 85.0594 72.3238 0 -6.25713
668925 1 136.015 124.515 72.2207 0 -6.57108
675326 1 139.324 124.556 75.5448 0 -7.5224
169805 1 136.015 127.883 75.5891 0 -6.57363
694932 1 158.481 142.511 85.2004 0 -6.82827
712448 1 145.755 73.4445 92.6709 0 -7.88159
712449 1 148.881 73.7232 92.9549 0 -7.14331
718768 1 145.55 70.4097 95.9131 0 -7.73066
718769 1 148.917 70.5037 96.1248 0 -7.854
206929 1 145.649 73.5193 95.8116 0 -7.9256
725089 1 148.971 67.1176 99.0463 0 -7.81432
213249 1 145.527 70.3349 98.9168 0 -7.42085
725467 1 76.7707 85.0815 99.0787 0 -6.25449
225969 1 145.604 67.0907 102.368 0 -6.66783
764301 1 187.173 101.025 118.222 0 -6.25524
764843 1 127.803 123.361 120.165 0 -6.25358
803315 1 104.233 126.547 139.3 0 -6.25419
872134 1 164.836 62.7496 174.393 0 -6.25496
41900 1 180.436 129.394 11.3637 0 -6.25495
107416 1 167.63 191.991 43.2484 0 -7.52228
112707 1 205.959 145.344 45.2004 0 -6.25361
113736 1 167.587 188.666 46.5556 0 -6.57277
113817 1 170.953 192.032 46.557 0 -6.57125
156912 1 93.0617 124.96 70.719 0 -6.25495
170364 1 129.408 148.559 75.1618 0 -6.82169
170445 1 132.669 151.812 75.0331 0 -6.55039
181328 1 142.26 75.1503 81.6408 0 -7.34473
181409 1 145.266 78.2687 80.3721 0 -6.32656
693328 1 144.128 75.1426 83.5055 0 -7.58472
187808 1 140.981 78.2731 84.6384 0 -6.37173
189332 1 156.711 140.74 86.7836 0 -6.54374
196125 1 132.586 156.878 87.9454 0 -6.25676
194603 1 128.141 96.257 89.8687 0 -6.25534
206848 1 143.889 72.0441 94.4105 0 -7.43818
201575 1 166.364 118.687 92.976 0 -6.54284
213078 1 110.264 65.5916 97.4808 0 -6.25454
214432 1 93.0801 119.749 97.4688 0 -6.34964
207976 1 169.621 118.568 96.2338 0 -6.82117
