ITEM: TIMESTEP
77000
ITEM: NUMBER OF ATOMS
42
ITEM: BOX BOUNDS pp pp pp
0 240
0 240
0 240
ITEM: ATOMS id type x y z
132701 1 180.75 174.75 60.75
137560 1 117.75 117.75 63.75
151978 1 171.75 177.75 69.75
163157 1 108.75 117.75 75.75
175799 1 114.75 111.75 81.75
176609 1 144.75 141.75 81.75
176687 1 138.75 144.75 81.75
176767 1 138.75 147.75 81.75
181328 1 141.75 78.75 84.75
182596 1 105.75 126.75 84.75
182848 1 141.75 135.75 84.75
188761 1 120.75 117.75 87.75
194918 1 111.75 108.75 90.75
214039 1 114.75 105.75 99.75
214202 1 123.75 111.75 99.75
226290 1 147.75 84.75 105.75
232045 1 132.75 60.75 108.75
251896 1 165.75 84.75 117.75
252055 1 162.75 90.75 117.75
258529 1 144.75 93.75 120.75
644543 1 188.25 170.25 62.25
663341 1 182.25 155.25 71.25
663741 1 182.25 170.25 71.25
676697 1 170.25 176.25 77.25
682288 1 143.25 146.25 80.25
687331 1 152.25 95.25 83.25
689417 1 170.25 173.25 83.25
707071 1 92.25 116.25 92.25
707243 1 128.25 122.25 92.25
707323 1 128.25 125.25 92.25
713238 1 113.25 107.25 95.25
713554 1 101.25 119.25 95.25
713634 1 101.25 122.25 95.25
725409 1 146.25 83.25 101.25
731245 1 134.25 62.25 104.25
738130 1 149.25 80.25 107.25
744453 1 158.25 77.25 110.25
750528 1 143.25 65.25 113.25
750690 1 149.25 71.25 113.25
751011 1 152.25 83.25 113.25
757494 1 161.25 86.25 116.25
757720 1 119.25 95.25 116.25
