ITEM: TIMESTEP
87397
ITEM: NUMBER OF ATOMS
77
ITEM: BOX BOUNDS pp pp pp
0 360
0 360
0 360
ITEM: ATOMS id type x y z
611583 1 186.75 168.75 126.75
626819 1 174.75 189.75 129.75
697736 1 165.75 162.75 144.75
711172 1 153.75 138.75 147.75
726781 1 180.75 168.75 150.75
783529 1 144.75 147.75 162.75
784133 1 156.75 162.75 162.75
798048 1 141.75 150.75 165.75
798049 1 144.75 150.75 165.75
798161 1 120.75 153.75 165.75
798533 1 156.75 162.75 165.75
811850 1 147.75 135.75 168.75
812331 1 150.75 147.75 168.75
813056 1 165.75 165.75 168.75
826616 1 165.75 144.75 171.75
826731 1 150.75 147.75 171.75
827093 1 156.75 156.75 171.75
827211 1 150.75 159.75 171.75
827213 1 156.75 159.75 171.75
841127 1 138.75 147.75 174.75
841613 1 156.75 159.75 174.75
841845 1 132.75 165.75 174.75
855286 1 135.75 141.75 177.75
855406 1 135.75 144.75 177.75
855530 1 147.75 147.75 177.75
855645 1 132.75 150.75 177.75
855646 1 135.75 150.75 177.75
855650 1 147.75 150.75 177.75
869205 1 132.75 129.75 180.75
869444 1 129.75 135.75 180.75
884086 1 135.75 141.75 183.75
898974 1 159.75 153.75 186.75
899215 1 162.75 159.75 186.75
927767 1 138.75 153.75 192.75
944078 1 111.75 201.75 195.75
957055 1 162.75 165.75 198.75
1087736 1 165.75 192.75 225.75
2412421 1 182.25 191.25 143.25
2453932 1 155.25 149.25 152.25
2454173 1 158.25 155.25 152.25
2468576 1 167.25 155.25 155.25
2482372 1 155.25 140.25 158.25
2497491 1 152.25 158.25 161.25
2498095 1 164.25 173.25 161.25
2511516 1 107.25 149.25 164.25
2526047 1 140.25 152.25 167.25
2526290 1 149.25 158.25 167.25
2539487 1 140.25 128.25 170.25
2540206 1 137.25 146.25 170.25
2540207 1 140.25 146.25 170.25
2540450 1 149.25 152.25 170.25
2540692 1 155.25 158.25 170.25
2540812 1 155.25 161.25 170.25
2554254 1 161.25 137.25 173.25
2554736 1 167.25 149.25 173.25
2555452 1 155.25 167.25 173.25
2555932 1 155.25 179.25 173.25
2568643 1 128.25 137.25 176.25
2568893 1 158.25 143.25 176.25
2569004 1 131.25 146.25 176.25
2569011 1 152.25 146.25 176.25
2569125 1 134.25 149.25 176.25
2569129 1 146.25 149.25 176.25
2569490 1 149.25 158.25 176.25
2569729 1 146.25 164.25 176.25
2582807 1 140.25 131.25 179.25
2583527 1 140.25 149.25 179.25
2583529 1 146.25 149.25 179.25
2583647 1 140.25 152.25 179.25
2597814 1 161.25 146.25 182.25
2598527 1 140.25 164.25 182.25
2612202 1 125.25 146.25 185.25
2641853 1 158.25 167.25 191.25
2670041 1 122.25 152.25 197.25
2672197 1 110.25 206.25 197.25
2698009 1 146.25 131.25 203.25
2715397 1 110.25 206.25 206.25
