ITEM: TIMESTEP
83000
ITEM: NUMBER OF ATOMS
71
ITEM: BOX BOUNDS pp pp pp
0 360
0 360
0 360
ITEM: ATOMS id type x y z
683937 1 168.75 177.75 141.75
684421 1 180.75 189.75 141.75
684544 1 189.75 192.75 141.75
697009 1 144.75 144.75 144.75
697616 1 165.75 159.75 144.75
698100 1 177.75 171.75 144.75
698821 1 180.75 189.75 144.75
699062 1 183.75 195.75 144.75
712622 1 183.75 174.75 147.75
725690 1 147.75 141.75 150.75
755699 1 174.75 171.75 156.75
770335 1 162.75 177.75 159.75
770336 1 165.75 177.75 159.75
770461 1 180.75 180.75 159.75
770585 1 192.75 183.75 159.75
785098 1 171.75 186.75 162.75
785462 1 183.75 195.75 162.75
799135 1 162.75 177.75 165.75
799379 1 174.75 183.75 165.75
799380 1 177.75 183.75 165.75
813777 1 168.75 183.75 168.75
813897 1 168.75 186.75 168.75
828298 1 171.75 186.75 171.75
828299 1 174.75 186.75 171.75
841971 1 150.75 168.75 174.75
842214 1 159.75 174.75 174.75
856975 1 162.75 183.75 177.75
857099 1 174.75 186.75 177.75
857337 1 168.75 192.75 177.75
870174 1 159.75 153.75 180.75
870888 1 141.75 171.75 180.75
871136 1 165.75 177.75 180.75
885874 1 99.75 186.75 183.75
886259 1 174.75 195.75 183.75
913971 1 150.75 168.75 189.75
1044769 1 144.75 198.75 216.75
1116165 1 132.75 183.75 231.75
2369583 1 188.25 200.25 134.25
2383861 1 182.25 197.25 137.25
2397416 1 167.25 176.25 140.25
2411820 1 179.25 176.25 143.25
2412187 1 200.25 185.25 143.25
2439411 1 152.25 146.25 149.25
2469418 1 173.25 176.25 155.25
2469899 1 176.25 188.25 155.25
2483699 1 176.25 173.25 158.25
2512376 1 167.25 170.25 164.25
2513102 1 185.25 188.25 164.25
2526651 1 152.25 167.25 167.25
2526894 1 161.25 173.25 167.25
2527261 1 182.25 182.25 167.25
2527382 1 185.25 185.25 167.25
2541415 1 164.25 176.25 170.25
2542018 1 173.25 191.25 170.25
2542265 1 194.25 197.25 170.25
2555940 1 179.25 179.25 173.25
2556177 1 170.25 185.25 173.25
2556178 1 173.25 185.25 173.25
2556179 1 176.25 185.25 173.25
2569608 1 143.25 161.25 176.25
2569971 1 152.25 170.25 176.25
2570335 1 164.25 179.25 176.25
2570575 1 164.25 185.25 176.25
2584605 1 134.25 176.25 179.25
2598528 1 143.25 164.25 182.25
2612930 1 149.25 164.25 185.25
2628058 1 173.25 182.25 188.25
2670768 1 143.25 170.25 197.25
2743965 1 134.25 200.25 212.25
2758370 1 149.25 200.25 215.25
2815726 1 137.25 194.25 227.25
