ITEM: TIMESTEP
97591
ITEM: NUMBER OF ATOMS
90
ITEM: BOX BOUNDS pp pp pp
0 360
0 360
0 360
ITEM: ATOMS id type x y z
697009 1 144.75 144.75 144.75
754971 1 150.75 153.75 156.75
841735 1 162.75 162.75 174.75
914457 1 168.75 180.75 189.75
1086661 1 180.75 165.75 225.75
1089807 1 258.75 243.75 225.75
1102622 1 183.75 204.75 228.75
1103849 1 264.75 234.75 228.75
1104686 1 255.75 255.75 228.75
1116058 1 171.75 180.75 231.75
1116186 1 195.75 183.75 231.75
1130460 1 177.75 180.75 234.75
1145461 1 180.75 195.75 237.75
1145708 1 201.75 201.75 237.75
1161924 1 249.75 246.75 240.75
1173538 1 171.75 177.75 243.75
1174382 1 183.75 198.75 243.75
1188788 1 201.75 198.75 246.75
1190730 1 267.75 246.75 246.75
1205130 1 267.75 246.75 249.75
1205245 1 252.75 249.75 249.75
1205248 1 261.75 249.75 249.75
1205736 1 285.75 261.75 249.75
1216979 1 174.75 183.75 252.75
1218683 1 246.75 225.75 252.75
1219285 1 252.75 240.75 252.75
1219528 1 261.75 246.75 252.75
1220251 1 270.75 264.75 252.75
1234651 1 270.75 264.75 255.75
1234891 1 270.75 270.75 255.75
1248326 1 255.75 246.75 258.75
1248444 1 249.75 249.75 258.75
1248446 1 255.75 249.75 258.75
1262250 1 267.75 234.75 261.75
1262491 1 270.75 240.75 261.75
1262723 1 246.75 246.75 261.75
1262963 1 246.75 252.75 261.75
1263088 1 261.75 255.75 261.75
1263329 1 264.75 261.75 261.75
1277004 1 249.75 243.75 264.75
1277368 1 261.75 252.75 264.75
1277966 1 255.75 267.75 264.75
1277973 1 276.75 267.75 264.75
1291893 1 276.75 255.75 267.75
1305448 1 261.75 234.75 270.75
1334367 1 258.75 237.75 276.75
1347453 1 276.75 204.75 279.75
1406124 1 249.75 231.75 291.75
2454522 1 125.25 164.25 152.25
2468450 1 149.25 152.25 155.25
2482969 1 146.25 155.25 158.25
2497843 1 128.25 167.25 161.25
2569735 1 164.25 164.25 176.25
2686023 1 188.25 191.25 200.25
2742784 1 191.25 170.25 212.25
2786940 1 179.25 194.25 221.25
2788643 1 248.25 236.25 221.25
2832082 1 245.25 242.25 230.25
2844066 1 197.25 182.25 233.25
2873703 1 188.25 203.25 239.25
2873945 1 194.25 209.25 239.25
2903724 1 251.25 233.25 245.25
2903725 1 254.25 233.25 245.25
2916665 1 194.25 197.25 248.25
2918604 1 251.25 245.25 248.25
2918605 1 254.25 245.25 248.25
2919446 1 257.25 266.25 248.25
2930457 1 170.25 182.25 251.25
2932887 1 260.25 242.25 251.25
2933005 1 254.25 245.25 251.25
2933007 1 260.25 245.25 251.25
2933361 1 242.25 254.25 251.25
2934087 1 260.25 272.25 251.25
2944855 1 164.25 182.25 254.25
2945223 1 188.25 191.25 254.25
2946318 1 233.25 218.25 254.25
2946810 1 269.25 230.25 254.25
2947399 1 236.25 245.25 254.25
2947523 1 248.25 248.25 254.25
2947889 1 266.25 257.25 254.25
2961688 1 263.25 242.25 257.25
2961923 1 248.25 248.25 257.25
2962646 1 257.25 266.25 257.25
2975115 1 224.25 218.25 260.25
2976204 1 251.25 245.25 260.25
2976207 1 260.25 245.25 260.25
2976564 1 251.25 254.25 260.25
3020372 1 275.25 269.25 269.25
3033320 1 239.25 233.25 272.25
3033328 1 263.25 233.25 272.25
