ITEM: TIMESTEP
88000
ITEM: NUMBER OF ATOMS
62
ITEM: BOX BOUNDS pp pp pp
0 360
0 360
0 360
ITEM: ATOMS id type x y z
514039 1 234.75 249.75 105.75
514159 1 234.75 252.75 105.75
527958 1 231.75 237.75 108.75
585429 1 204.75 234.75 120.75
642893 1 156.75 231.75 132.75
668811 1 150.75 159.75 138.75
682978 1 171.75 153.75 141.75
685855 1 162.75 225.75 141.75
686087 1 138.75 231.75 141.75
686576 1 165.75 243.75 141.75
700614 1 159.75 234.75 144.75
711410 1 147.75 144.75 147.75
712134 1 159.75 162.75 147.75
729053 1 156.75 225.75 150.75
729171 1 150.75 228.75 150.75
729295 1 162.75 231.75 150.75
743810 1 147.75 234.75 153.75
757972 1 153.75 228.75 156.75
783298 1 171.75 141.75 162.75
787263 1 186.75 240.75 162.75
813782 1 183.75 183.75 168.75
828178 1 171.75 183.75 171.75
843170 1 147.75 198.75 174.75
843531 1 150.75 207.75 174.75
854583 1 186.75 123.75 177.75
856848 1 141.75 180.75 177.75
869342 1 183.75 132.75 180.75
871856 1 165.75 195.75 180.75
886131 1 150.75 192.75 183.75
898022 1 183.75 129.75 186.75
900531 1 150.75 192.75 186.75
929090 1 147.75 186.75 192.75
2213123 1 248.25 248.25 101.25
2227401 1 242.25 245.25 104.25
2256320 1 239.25 248.25 110.25
2284517 1 230.25 233.25 116.25
2284600 1 119.25 236.25 116.25
2284997 1 230.25 245.25 116.25
2285117 1 230.25 248.25 116.25
2285356 1 227.25 254.25 116.25
2285479 1 236.25 257.25 116.25
2299397 1 230.25 245.25 119.25
2299635 1 224.25 251.25 119.25
2327210 1 149.25 221.25 125.25
2327681 1 122.25 233.25 125.25
2342089 1 146.25 233.25 128.25
2370049 1 146.25 212.25 134.25
2371239 1 116.25 242.25 134.25
2384934 1 161.25 224.25 137.25
2413620 1 179.25 221.25 143.25
2413971 1 152.25 230.25 143.25
2442773 1 158.25 230.25 149.25
2457055 1 164.25 227.25 152.25
2467738 1 173.25 134.25 155.25
2471691 1 152.25 233.25 155.25
2496658 1 173.25 137.25 161.25
2512491 1 152.25 173.25 164.25
2525339 1 176.25 134.25 167.25
2582581 1 182.25 125.25 179.25
2611861 1 182.25 137.25 185.25
2614010 1 149.25 191.25 185.25
2642333 1 158.25 179.25 191.25
