ITEM: TIMESTEP
98668
ITEM: NUMBER OF ATOMS
143
ITEM: BOX BOUNDS pp pp pp
0 360
0 360
0 360
ITEM: ATOMS id type x y z
580777 1 288.75 117.75 120.75
610300 1 297.75 135.75 126.75
624328 1 261.75 126.75 129.75
681932 1 273.75 126.75 141.75
696333 1 276.75 126.75 144.75
711410 1 147.75 144.75 147.75
753923 1 246.75 126.75 156.75
768326 1 255.75 126.75 159.75
841255 1 162.75 150.75 174.75
855532 1 153.75 147.75 177.75
855888 1 141.75 156.75 177.75
870296 1 165.75 156.75 180.75
870535 1 162.75 162.75 180.75
884333 1 156.75 147.75 183.75
884807 1 138.75 159.75 183.75
886270 1 207.75 195.75 183.75
886508 1 201.75 201.75 183.75
898737 1 168.75 147.75 186.75
898849 1 144.75 150.75 186.75
911115 1 222.75 96.75 189.75
912893 1 156.75 141.75 189.75
913013 1 156.75 144.75 189.75
913372 1 153.75 153.75 189.75
913627 1 198.75 159.75 189.75
914093 1 156.75 171.75 189.75
925521 1 240.75 96.75 192.75
925638 1 231.75 99.75 192.75
927535 1 162.75 147.75 192.75
927536 1 165.75 147.75 192.75
927538 1 171.75 147.75 192.75
927539 1 174.75 147.75 192.75
927655 1 162.75 150.75 192.75
927656 1 165.75 150.75 192.75
927775 1 162.75 153.75 192.75
927892 1 153.75 156.75 192.75
928127 1 138.75 162.75 192.75
928132 1 153.75 162.75 192.75
929832 1 213.75 204.75 192.75
941808 1 141.75 144.75 195.75
941938 1 171.75 147.75 195.75
941939 1 174.75 147.75 195.75
942055 1 162.75 150.75 195.75
942056 1 165.75 150.75 195.75
942057 1 168.75 150.75 195.75
942292 1 153.75 156.75 195.75
942293 1 156.75 156.75 195.75
942417 1 168.75 159.75 195.75
942536 1 165.75 162.75 195.75
942537 1 168.75 162.75 195.75
942894 1 159.75 171.75 195.75
954195 1 222.75 93.75 198.75
954315 1 222.75 96.75 198.75
956213 1 156.75 144.75 198.75
956214 1 159.75 144.75 198.75
956335 1 162.75 147.75 198.75
956456 1 165.75 150.75 198.75
956457 1 168.75 150.75 198.75
956692 1 153.75 156.75 198.75
956694 1 159.75 156.75 198.75
956933 1 156.75 162.75 198.75
970616 1 165.75 144.75 201.75
971094 1 159.75 156.75 201.75
972672 1 213.75 195.75 201.75
984413 1 156.75 129.75 204.75
999654 1 159.75 150.75 207.75
1000135 1 162.75 162.75 207.75
1014043 1 126.75 150.75 210.75
1014302 1 183.75 156.75 210.75
1027738 1 171.75 132.75 213.75
1057393 1 216.75 153.75 219.75
1057505 1 192.75 156.75 219.75
1070235 1 222.75 114.75 222.75
2294617 1 290.25 125.25 119.25
2308896 1 287.25 122.25 122.25
2366850 1 269.25 131.25 134.25
2381015 1 284.25 125.25 137.25
2396090 1 149.25 143.25 140.25
2409690 1 269.25 122.25 143.25
2438610 1 269.25 125.25 149.25
2510843 1 248.25 131.25 164.25
2539034 1 221.25 116.25 170.25
2598050 1 149.25 152.25 182.25
2626497 1 170.25 143.25 188.25
2626975 1 164.25 155.25 188.25
2627336 1 167.25 164.25 188.25
2640781 1 182.25 140.25 191.25
2641131 1 152.25 149.25 191.25
2641132 1 155.25 149.25 191.25
2642707 1 200.25 188.25 191.25
2655417 1 170.25 146.25 194.25
2655418 1 173.25 146.25 194.25
2655535 1 164.25 149.25 194.25
2655536 1 167.25 149.25 194.25
2655537 1 170.25 149.25 194.25
2655538 1 173.25 149.25 194.25
2655651 1 152.25 152.25 194.25
2655652 1 155.25 152.25 194.25
2655655 1 164.25 152.25 194.25
2655656 1 167.25 152.25 194.25
2655771 1 152.25 155.25 194.25
2655772 1 155.25 155.25 194.25
2655773 1 158.25 155.25 194.25
2655894 1 161.25 158.25 194.25
2656016 1 167.25 161.25 194.25
2656017 1 170.25 161.25 194.25
2656133 1 158.25 164.25 194.25
2667669 1 206.25 92.25 197.25
2667796 1 227.25 95.25 197.25
2669817 1 170.25 146.25 197.25
2669818 1 173.25 146.25 197.25
2669935 1 164.25 149.25 197.25
2669936 1 167.25 149.25 197.25
2669938 1 173.25 149.25 197.25
2670051 1 152.25 152.25 197.25
2670052 1 155.25 152.25 197.25
2670172 1 155.25 155.25 197.25
2670412 1 155.25 161.25 197.25
2670417 1 170.25 161.25 197.25
2672712 1 215.25 218.25 197.25
2684219 1 176.25 146.25 200.25
2684327 1 140.25 149.25 200.25
2684334 1 161.25 149.25 200.25
2684454 1 161.25 152.25 200.25
2684573 1 158.25 155.25 200.25
2684574 1 161.25 155.25 200.25
2684693 1 158.25 158.25 200.25
2684817 1 170.25 161.25 200.25
2698727 1 140.25 149.25 203.25
2698968 1 143.25 155.25 203.25
2699093 1 158.25 158.25 203.25
2712292 1 155.25 128.25 206.25
2713131 1 152.25 149.25 206.25
2713133 1 158.25 149.25 206.25
2713253 1 158.25 152.25 206.25
2727527 1 140.25 149.25 209.25
2727769 1 146.25 155.25 209.25
2741812 1 155.25 146.25 212.25
2742171 1 152.25 155.25 212.25
2756209 1 146.25 146.25 215.25
2770974 1 161.25 155.25 218.25
2771113 1 218.25 158.25 218.25
2785248 1 143.25 152.25 221.25
2785389 1 206.25 155.25 221.25
