ITEM: TIMESTEP
98000
ITEM: NUMBER OF ATOMS
143
ITEM: BOX BOUNDS pp pp pp
0 360
0 360
0 360
ITEM: ATOMS id type x y z c_myKE c_myPE
2409772 1 152.173 121.159 141.531 0.31679 -5.83553
2438971 1 279.243 130.581 146.217 0.168215 -6.9934
2452068 1 331.375 95.371 151.423 0.0446456 -5.76917
2526436 1 231.238 159.126 164.822 0.133929 -6.95944
2539254 1 163.929 119.754 168.604 0.400021 -6.78428
825678 1 235.949 119.587 171.723 0.144851 -6.71931
826254 1 155.512 130.499 170.65 0.326031 -7.38422
2568077 1 232.724 119.623 174.792 0.249408 -7.83251
2571668 1 203.43 213.178 175.027 0.142658 -7.32462
840198 1 235.537 119.955 178.183 0.24855 -7.34433
2569163 1 251.673 148.505 177.233 0.128187 -7.35561
2569282 1 248.188 151.616 176.696 0.117654 -7.3508
2625182 1 187.877 106.93 191.339 0.0694656 -6.3198
2625774 1 158.024 120.87 189.917 0.012982 -6.96567
926716 1 232.358 124.151 194.152 0.23294 -8.06279
2683516 1 232.412 121.122 197.576 0.105412 -8.65664
2668997 1 234.126 119.545 195.97 0.12206 -7.59775
955635 1 226.115 124.27 197.526 0.281585 -8.87959
2669236 1 229.32 124.323 197.464 0.287991 -8.64329
2683274 1 232.526 124.16 197.498 0.257622 -8.57218
2669232 1 226.019 127.393 197.44 0.040791 -8.40471
2668495 1 164.893 110.2 200.586 0.0236864 -6.26334
2697677 1 235.558 117.936 200.596 0.21137 -8.06086
940759 1 237.362 116.423 199.29 0.197887 -7.0204
2654476 1 227.806 119.444 199.151 0.284501 -8.56596
2683035 1 230.944 119.503 199.253 0.0792581 -8.45261
2668878 1 235.375 120.996 200.739 0.336107 -8.3538
2683513 1 224.706 122.731 199.106 0.194648 -8.7099
955876 1 227.775 122.777 199.069 0.305769 -8.61644
2669006 1 261.011 122.581 198.882 0.0964921 -6.07177
2686038 1 237.492 192.908 200.907 0.0985582 -6.47431
2682057 1 168.606 87.7404 203.59 0.122314 -6.6625
2697797 1 232.051 120.864 203.884 0.0316574 -8.07728
2712554 1 221.512 122.444 202.525 0.403374 -8.27022
2697795 1 226.006 124.296 203.862 0.510531 -8.71863
984437 1 229.059 124.358 203.789 0.237047 -8.63844
2683870 1 216.62 130.463 203.914 0.143131 -8.06455
2669114 1 219.682 130.575 203.822 0.226642 -8.01826
2698391 1 215.019 132.017 202.83 0.0772614 -7.43921
2683989 1 211.828 135.402 203.841 0.0917834 -7.77913
2697662 1 184.438 119.73 205.639 0.026432 -6.53279
984313 1 224.447 122.546 205.766 0.0833729 -7.50412
2698153 1 219.705 130.574 206.91 0.0734663 -7.65075
970509 1 215.385 132.225 206.243 0.0899758 -7.6125
2712792 1 212.187 135.49 207.038 0.0745229 -8.343
2698147 1 205.566 138.581 206.98 0.174787 -8.75165
2712791 1 208.708 138.621 207.178 0.223848 -8.44941
999311 1 211.834 138.822 207.278 0.284311 -8.06647
985150 1 202.465 141.646 207.096 0.15789 -8.57222
2712667 1 205.54 141.841 206.998 0.250883 -8.72621
985028 1 208.585 141.847 207.087 0.0892846 -8.53473
985503 1 192.572 148.482 207.02 0.211433 -6.81107
1013825 1 199.378 141.79 210.371 0.145289 -8.53036
2727187 1 202.362 141.718 210.285 0.0538746 -8.86017
970871 1 211.772 141.973 210.242 0.112092 -8.12689
999784 1 196.236 144.996 210.29 0.100538 -8.25747
2713146 1 205.388 145.05 210.268 0.108644 -8.81316
999431 1 208.479 145.02 210.009 0.20485 -8.28603
2741943 1 199.499 148.201 210.527 0.197069 -8.52306
2742068 1 202.292 148.11 210.269 0.0896224 -8.4576
1028469 1 202.575 145.068 213.675 0.042316 -8.18419
2698508 1 205.469 145.358 213.582 0.0549117 -8.37838
2698868 1 211.885 145.093 213.47 0.151372 -7.83664
2741705 1 199.242 148.26 213.358 0.130285 -7.44847
999667 1 205.915 148.383 213.584 0.0883688 -7.50018
2742784 1 191.077 168.681 214.967 0.189754 -6.3184
2742904 1 190.953 172.225 215.076 0.165313 -6.90787
2757165 1 132.632 170.995 218.388 0.380982 -7.01524
2757303 1 187.769 172.127 218.387 0.0327949 -7.91718
2771582 1 183.232 170.708 223.152 0.0297407 -6.93277
1071078 1 232.598 133.833 224.804 0.004769 -7.92473
2813236 1 231.311 129.361 229.28 0.0496825 -7.12761
2813355 1 227.903 132.375 229.702 0.585364 -7.72436
2813356 1 231.252 132.569 229.516 0.261399 -8.14091
2813238 1 235.509 130.501 231.163 0.151345 -6.94717
2843479 1 238.709 167.552 235.78 0.016314 -6.86992
337539 1 302.752 156.35 61.9247 0.0446967 -6.79963
552579 1 300.922 130.868 110.006 0.0907687 -6.56689
552333 1 283.5 124.709 112.028 0.0648768 -6.73967
566858 1 300.977 127.689 113.15 0.0721563 -6.4464
2309013 1 286.823 124.48 114.732 0.266574 -6.55604
624563 1 249.933 130.573 125.933 0.126826 -6.19706
652055 1 287.604 95.8865 133.849 0.324372 -5.7889
667180 1 306.032 114.87 137.557 0.143698 -6.66745
782223 1 186.253 111.809 160.745 0.0808669 -7.22763
769605 1 129.085 157.587 159.355 0.162471 -7.37829
769726 1 131.896 160.907 159.449 0.0919809 -6.83834
796503 1 186.476 108.397 163.986 0.135399 -6.69647
796624 1 189.103 111.567 163.848 0.104348 -6.43549
811497 1 168.782 124.389 167.301 0.00880035 -6.74561
826013 1 155.84 127.432 170.046 0.292181 -6.12744
829388 1 202.028 214.914 170.05 0.0798041 -7.40429
826884 1 253.018 150.359 172.173 0.0774403 -6.29053
843669 1 205.135 212.01 173.45 0.0383472 -6.92138
843789 1 204.904 215.181 173.46 0.356522 -7.43707
839958 1 235.927 116.038 175.484 0.149273 -7.43211
854477 1 231.44 118.007 176.61 0.089519 -7.46388
868878 1 234.025 118.005 180.042 0.174808 -7.3732
855564 1 253.296 146.666 178.749 0.326681 -6.83643
2654716 1 227.888 125.92 192.545 0.12127 -7.09237
2654338 1 173.396 118.219 194.198 0.678513 -6.00165
941117 1 234.125 122.349 196.038 0.445202 -8.34435
926715 1 226.158 124.228 194.417 0.405607 -8.27518
941236 1 230.864 125.876 195.99 0.10506 -8.38643
2697436 1 230.777 116.311 199.2 0.141254 -7.99071
2668758 1 237.095 119.319 199.183 0.137895 -7.65766
940997 1 230.786 122.802 199.153 0.222668 -8.61918
2683633 1 221.275 125.74 199.32 0.170615 -8.41444
2683754 1 224.363 125.816 199.124 0.167556 -8.61974
2669113 1 224.224 128.907 198.808 0.0715135 -7.65764
969677 1 234.051 116.108 201.892 0.129929 -7.18992
2683392 1 227.704 119.45 202.245 0.0263796 -8.28327
940875 1 221.245 125.594 202.446 0.267563 -8.62558
955754 1 224.252 125.799 202.377 0.110143 -8.68185
2654831 1 221.248 128.992 202.276 0.116063 -8.17825
955874 1 218.06 132.069 202.103 0.280966 -8.16407
970508 1 210.29 137.362 202.262 0.151573 -7.50643
2669828 1 207.009 140.273 202.321 0.128331 -8.35372
2712314 1 227.698 122.519 205.335 0.178261 -8.2029
2683753 1 221.274 128.999 205.339 0.0593426 -8.20093
2712673 1 213.746 133.533 204.86 0.149466 -8.02428
970267 1 207.292 137.139 205.627 0.219039 -8.24042
999189 1 210.542 137.067 205.599 0.176485 -8.56065
2698624 1 203.82 140.069 205.326 0.234224 -8.28807
2684109 1 210.261 140.385 208.767 0.444412 -8.50949
2698509 1 213.522 140.493 208.663 0.0730458 -7.58707
999786 1 197.933 143.314 208.64 0.241034 -7.69333
2698506 1 207.038 143.501 208.611 0.0602477 -8.44519
970745 1 210.185 143.452 208.721 0.115901 -8.70295
1013944 1 194.712 146.773 208.598 0.0535893 -7.40761
985027 1 200.599 146.49 208.539 0.196163 -8.23079
2713026 1 200.986 143.32 211.954 0.229899 -8.49242
2712789 1 210.205 143.765 211.921 0.109034 -8.00071
2698871 1 210.246 146.85 212.037 0.084377 -8.28538
2770747 1 197.878 150.052 211.858 0.232117 -7.23349
1014309 1 207.261 146.637 215.052 0.100886 -8.09341
1029305 1 192.366 170.44 216.578 0.124014 -7.25875
1029285 1 130.769 172.265 216.769 0.241854 -6.99527
1043822 1 182.85 173.723 219.927 0.0304513 -6.60994
1043805 1 130.717 175.844 220.046 0.252119 -6.80768
1099757 1 232.748 130.875 230.864 0.0620466 -7.21181
1085597 1 231.055 135.317 229.443 0.230084 -6.64257
1128876 1 100.291 141.663 240.522 0.502894 -6.33489
