ITEM: TIMESTEP
100733
ITEM: NUMBER OF ATOMS
96
ITEM: BOX BOUNDS pp pp pp
0 360
0 360
0 360
ITEM: ATOMS id type x y z
682969 1 144.75 153.75 141.75
697126 1 135.75 147.75 144.75
726047 1 138.75 150.75 150.75
783290 1 147.75 141.75 162.75
826853 1 156.75 150.75 171.75
956818 1 171.75 159.75 198.75
971099 1 174.75 156.75 201.75
971219 1 174.75 159.75 201.75
1000391 1 210.75 168.75 207.75
1089549 1 204.75 237.75 225.75
1101067 1 198.75 165.75 228.75
1114502 1 183.75 141.75 231.75
1116797 1 228.75 198.75 231.75
1129145 1 192.75 147.75 234.75
1131195 1 222.75 198.75 234.75
1147502 1 183.75 246.75 237.75
1159500 1 177.75 186.75 240.75
1159859 1 174.75 195.75 240.75
1159860 1 177.75 195.75 240.75
1159881 1 240.75 195.75 240.75
1161070 1 207.75 225.75 240.75
1161311 1 210.75 231.75 240.75
1186987 1 198.75 153.75 246.75
1187104 1 189.75 156.75 246.75
1188541 1 180.75 192.75 246.75
1190475 1 222.75 240.75 246.75
1204256 1 165.75 225.75 249.75
1205232 1 213.75 249.75 249.75
1232580 1 177.75 213.75 255.75
1233781 1 180.75 243.75 255.75
1244591 1 210.75 153.75 258.75
1247341 1 180.75 222.75 258.75
1247347 1 198.75 222.75 258.75
1261985 1 192.75 228.75 261.75
1262228 1 201.75 234.75 261.75
1276387 1 198.75 228.75 264.75
1290774 1 159.75 228.75 267.75
1299779 1 174.75 93.75 270.75
1303276 1 225.75 180.75 270.75
1305661 1 180.75 240.75 270.75
1306268 1 201.75 255.75 270.75
1331347 1 198.75 162.75 276.75
1348758 1 231.75 237.75 279.75
1377790 1 207.75 243.75 285.75
1400946 1 195.75 102.75 291.75
1401304 1 189.75 111.75 291.75
1444263 1 186.75 105.75 300.75
1458788 1 201.75 108.75 303.75
1487105 1 192.75 96.75 309.75
1494183 1 186.75 273.75 309.75
2425009 1 146.25 146.25 146.25
2468329 1 146.25 149.25 155.25
2554853 1 158.25 152.25 173.25
2554854 1 161.25 152.25 173.25
2626975 1 164.25 155.25 188.25
2699218 1 173.25 161.25 203.25
2756939 1 176.25 164.25 215.25
2799545 1 194.25 149.25 224.25
2828344 1 191.25 149.25 230.25
2828703 1 188.25 158.25 230.25
2828831 1 212.25 161.25 230.25
2842626 1 197.25 146.25 233.25
2843344 1 191.25 164.25 233.25
2857862 1 185.25 167.25 236.25
2875513 1 218.25 248.25 239.25
2886062 1 185.25 152.25 242.25
2887743 1 188.25 194.25 242.25
2901659 1 176.25 182.25 245.25
2914867 1 200.25 152.25 248.25
2916560 1 239.25 194.25 248.25
2917384 1 191.25 215.25 248.25
2930959 1 236.25 194.25 251.25
2931079 1 236.25 197.25 251.25
2946300 1 179.25 218.25 254.25
2946542 1 185.25 224.25 254.25
2947146 1 197.25 239.25 254.25
2947750 1 209.25 254.25 254.25
2961658 1 173.25 242.25 257.25
2990223 1 188.25 236.25 263.25
2990576 1 167.25 245.25 263.25
3001748 1 203.25 164.25 266.25
3005104 1 191.25 248.25 266.25
3015418 1 173.25 146.25 269.25
3030428 1 203.25 161.25 272.25
3033185 1 194.25 230.25 272.25
3084783 1 188.25 80.25 284.25
3099538 1 173.25 89.25 287.25
3099777 1 170.25 95.25 287.25
3100023 1 188.25 101.25 287.25
3113706 1 197.25 83.25 290.25
3143463 1 188.25 107.25 296.25
3157266 1 197.25 92.25 299.25
3171781 1 182.25 95.25 302.25
3171901 1 182.25 98.25 302.25
3178867 1 200.25 272.25 302.25
3214864 1 191.25 92.25 311.25
