ITEM: TIMESTEP
102220
ITEM: NUMBER OF ATOMS
284
ITEM: BOX BOUNDS pp pp pp
0 360
0 360
0 360
ITEM: ATOMS id type x y z
798030 1 87.75 150.75 165.75
827810 1 147.75 174.75 171.75
827820 1 177.75 174.75 171.75
842214 1 159.75 174.75 174.75
856729 1 144.75 177.75 177.75
856737 1 168.75 177.75 177.75
870776 1 165.75 168.75 180.75
870896 1 165.75 171.75 180.75
871488 1 141.75 186.75 180.75
871616 1 165.75 189.75 180.75
871973 1 156.75 198.75 180.75
872099 1 174.75 201.75 180.75
884924 1 129.75 162.75 183.75
884933 1 156.75 162.75 183.75
885053 1 156.75 165.75 183.75
885054 1 159.75 165.75 183.75
885167 1 138.75 168.75 183.75
885168 1 141.75 168.75 183.75
885169 1 144.75 168.75 183.75
885170 1 147.75 168.75 183.75
885172 1 153.75 168.75 183.75
885173 1 156.75 168.75 183.75
885174 1 159.75 168.75 183.75
885175 1 162.75 168.75 183.75
885176 1 165.75 168.75 183.75
885286 1 135.75 171.75 183.75
885291 1 150.75 171.75 183.75
885292 1 153.75 171.75 183.75
885293 1 156.75 171.75 183.75
885294 1 159.75 171.75 183.75
885295 1 162.75 171.75 183.75
885296 1 165.75 171.75 183.75
885406 1 135.75 174.75 183.75
885532 1 153.75 177.75 183.75
885533 1 156.75 177.75 183.75
885894 1 159.75 186.75 183.75
898977 1 168.75 153.75 186.75
899333 1 156.75 162.75 186.75
899452 1 153.75 165.75 186.75
899566 1 135.75 168.75 186.75
899567 1 138.75 168.75 186.75
899568 1 141.75 168.75 186.75
899569 1 144.75 168.75 186.75
899570 1 147.75 168.75 186.75
899571 1 150.75 168.75 186.75
899572 1 153.75 168.75 186.75
899573 1 156.75 168.75 186.75
899574 1 159.75 168.75 186.75
899575 1 162.75 168.75 186.75
899576 1 165.75 168.75 186.75
900056 1 165.75 180.75 186.75
913606 1 135.75 159.75 189.75
913970 1 147.75 168.75 189.75
913971 1 150.75 168.75 189.75
913972 1 153.75 168.75 189.75
913973 1 156.75 168.75 189.75
913974 1 159.75 168.75 189.75
914086 1 135.75 171.75 189.75
914087 1 138.75 171.75 189.75
914088 1 141.75 171.75 189.75
914089 1 144.75 171.75 189.75
914095 1 162.75 171.75 189.75
914096 1 165.75 171.75 189.75
914210 1 147.75 174.75 189.75
928006 1 135.75 159.75 192.75
928007 1 138.75 159.75 192.75
928008 1 141.75 159.75 192.75
928247 1 138.75 165.75 192.75
928248 1 141.75 165.75 192.75
928486 1 135.75 171.75 192.75
928487 1 138.75 171.75 192.75
928488 1 141.75 171.75 192.75
928489 1 144.75 171.75 192.75
928490 1 147.75 171.75 192.75
928491 1 150.75 171.75 192.75
928492 1 153.75 171.75 192.75
928493 1 156.75 171.75 192.75
928494 1 159.75 171.75 192.75
928495 1 162.75 171.75 192.75
928496 1 165.75 171.75 192.75
928610 1 147.75 174.75 192.75
928970 1 147.75 183.75 192.75
929086 1 135.75 186.75 192.75
929091 1 150.75 186.75 192.75
942410 1 147.75 159.75 195.75
942531 1 150.75 162.75 195.75
942647 1 138.75 165.75 195.75
942886 1 135.75 171.75 195.75
942887 1 138.75 171.75 195.75
942888 1 141.75 171.75 195.75
942889 1 144.75 171.75 195.75
942890 1 147.75 171.75 195.75
942891 1 150.75 171.75 195.75
942892 1 153.75 171.75 195.75
942893 1 156.75 171.75 195.75
942894 1 159.75 171.75 195.75
942895 1 162.75 171.75 195.75
942896 1 165.75 171.75 195.75
943124 1 129.75 177.75 195.75
943133 1 156.75 177.75 195.75
957284 1 129.75 171.75 198.75
957294 1 159.75 171.75 198.75
957295 1 162.75 171.75 198.75
957407 1 138.75 174.75 198.75
957408 1 141.75 174.75 198.75
957409 1 144.75 174.75 198.75
957410 1 147.75 174.75 198.75
957411 1 150.75 174.75 198.75
957412 1 153.75 174.75 198.75
957413 1 156.75 174.75 198.75
958134 1 159.75 192.75 198.75
971456 1 165.75 165.75 201.75
971692 1 153.75 171.75 201.75
971807 1 138.75 174.75 201.75
971808 1 141.75 174.75 201.75
971809 1 144.75 174.75 201.75
971810 1 147.75 174.75 201.75
971811 1 150.75 174.75 201.75
971812 1 153.75 174.75 201.75
971813 1 156.75 174.75 201.75
971814 1 159.75 174.75 201.75
971931 1 150.75 177.75 201.75
971932 1 153.75 177.75 201.75
972773 1 156.75 198.75 201.75
985492 1 153.75 156.75 204.75
985723 1 126.75 162.75 204.75
1000248 1 141.75 165.75 207.75
1000373 1 156.75 168.75 207.75
1000852 1 153.75 180.75 207.75
1015012 1 153.75 174.75 210.75
1029528 1 141.75 177.75 213.75
1044042 1 123.75 180.75 216.75
1213376 1 165.75 93.75 252.75
2497347 1 80.25 155.25 161.25
2497967 1 140.25 170.25 161.25
2512386 1 197.25 170.25 164.25
2540713 1 218.25 158.25 170.25
2555445 1 134.25 167.25 173.25
2556046 1 137.25 182.25 173.25
2568768 1 143.25 140.25 176.25
2569618 1 173.25 161.25 176.25
2569732 1 155.25 164.25 176.25
2569855 1 164.25 167.25 176.25
2570323 1 128.25 179.25 176.25
2570350 1 209.25 179.25 176.25
2570573 1 158.25 185.25 176.25
2583896 1 167.25 158.25 179.25
2584376 1 167.25 170.25 179.25
2597088 1 143.25 128.25 182.25
2597832 1 215.25 146.25 182.25
2598047 1 140.25 152.25 182.25
2598293 1 158.25 158.25 182.25
2598648 1 143.25 167.25 182.25
2598649 1 146.25 167.25 182.25
2598650 1 149.25 167.25 182.25
2598774 1 161.25 170.25 182.25
2598775 1 164.25 170.25 182.25
2598776 1 167.25 170.25 182.25
2598892 1 155.25 173.25 182.25
2612692 1 155.25 158.25 185.25
2612697 1 170.25 158.25 185.25
2612932 1 155.25 164.25 185.25
2612933 1 158.25 164.25 185.25
2613045 1 134.25 167.25 185.25
2613048 1 143.25 167.25 185.25
2613049 1 146.25 167.25 185.25
2613050 1 149.25 167.25 185.25
2613051 1 152.25 167.25 185.25
2613052 1 155.25 167.25 185.25
2613053 1 158.25 167.25 185.25
2613054 1 161.25 167.25 185.25
2613165 1 134.25 170.25 185.25
2613166 1 137.25 170.25 185.25
2613167 1 140.25 170.25 185.25
2613171 1 152.25 170.25 185.25
2613172 1 155.25 170.25 185.25
2613173 1 158.25 170.25 185.25
2613174 1 161.25 170.25 185.25
2613175 1 164.25 170.25 185.25
2613176 1 167.25 170.25 185.25
2613296 1 167.25 173.25 185.25
2613888 1 143.25 188.25 185.25
2614011 1 152.25 191.25 185.25
2627445 1 134.25 167.25 188.25
2627446 1 137.25 167.25 188.25
2627567 1 140.25 170.25 188.25
2627568 1 143.25 170.25 188.25
2627569 1 146.25 170.25 188.25
2627570 1 149.25 170.25 188.25
2627571 1 152.25 170.25 188.25
2627572 1 155.25 170.25 188.25
2627573 1 158.25 170.25 188.25
2627574 1 161.25 170.25 188.25
2627575 1 164.25 170.25 188.25
2627576 1 167.25 170.25 188.25
2627685 1 134.25 173.25 188.25
2627686 1 137.25 173.25 188.25
2627808 1 143.25 176.25 188.25
2627818 1 173.25 176.25 188.25
2627926 1 137.25 179.25 188.25
2627928 1 143.25 179.25 188.25
2627930 1 149.25 179.25 188.25
2627932 1 155.25 179.25 188.25
2641370 1 149.25 155.25 191.25
2641857 1 170.25 167.25 191.25
2641967 1 140.25 170.25 191.25
2641968 1 143.25 170.25 191.25
2641969 1 146.25 170.25 191.25
2641970 1 149.25 170.25 191.25
2641971 1 152.25 170.25 191.25
2641972 1 155.25 170.25 191.25
2641973 1 158.25 170.25 191.25
2641974 1 161.25 170.25 191.25
2641975 1 164.25 170.25 191.25
2642085 1 134.25 173.25 191.25
2642086 1 137.25 173.25 191.25
2642209 1 146.25 176.25 191.25
2642210 1 149.25 176.25 191.25
2642455 1 164.25 182.25 191.25
2655894 1 161.25 158.25 194.25
2656009 1 146.25 161.25 194.25
2656010 1 149.25 161.25 194.25
2656371 1 152.25 170.25 194.25
2656372 1 155.25 170.25 194.25
2656373 1 158.25 170.25 194.25
2656374 1 161.25 170.25 194.25
2656484 1 131.25 173.25 194.25
2656485 1 134.25 173.25 194.25
2656486 1 137.25 173.25 194.25
2656487 1 140.25 173.25 194.25
2656488 1 143.25 173.25 194.25
2656489 1 146.25 173.25 194.25
2656490 1 149.25 173.25 194.25
2656495 1 164.25 173.25 194.25
2656496 1 167.25 173.25 194.25
2656615 1 164.25 176.25 194.25
2656966 1 137.25 185.25 194.25
2669103 1 188.25 128.25 197.25
2670292 1 155.25 158.25 197.25
2670884 1 131.25 173.25 197.25
2670885 1 134.25 173.25 197.25
2670886 1 137.25 173.25 197.25
2670887 1 140.25 173.25 197.25
2670888 1 143.25 173.25 197.25
2670889 1 146.25 173.25 197.25
2670890 1 149.25 173.25 197.25
2670891 1 152.25 173.25 197.25
2670892 1 155.25 173.25 197.25
2670893 1 158.25 173.25 197.25
2670894 1 161.25 173.25 197.25
2670895 1 164.25 173.25 197.25
2671134 1 161.25 179.25 197.25
2671612 1 155.25 191.25 197.25
2671729 1 146.25 194.25 197.25
2685287 1 140.25 173.25 200.25
2685290 1 149.25 173.25 200.25
2685291 1 152.25 173.25 200.25
2685292 1 155.25 173.25 200.25
2685293 1 158.25 173.25 200.25
2685294 1 161.25 173.25 200.25
2685295 1 164.25 173.25 200.25
2685408 1 143.25 176.25 200.25
2685409 1 146.25 176.25 200.25
2685411 1 152.25 176.25 200.25
2698019 1 176.25 131.25 203.25
2699691 1 152.25 173.25 203.25
2699692 1 155.25 173.25 203.25
2699807 1 140.25 176.25 203.25
2699808 1 143.25 176.25 203.25
2699809 1 146.25 176.25 203.25
2699811 1 152.25 176.25 203.25
2699812 1 155.25 176.25 203.25
2713608 1 143.25 161.25 206.25
2713852 1 155.25 167.25 206.25
2713972 1 155.25 170.25 206.25
2714085 1 134.25 173.25 206.25
2728125 1 134.25 164.25 209.25
2728126 1 137.25 164.25 209.25
2728724 1 131.25 179.25 209.25
2743007 1 140.25 176.25 212.25
2771319 1 116.25 164.25 218.25
2772286 1 137.25 188.25 218.25
2841178 1 173.25 110.25 233.25
2857501 1 182.25 158.25 236.25
