ITEM: TIMESTEP
92000
ITEM: NUMBER OF ATOMS
83
ITEM: BOX BOUNDS pp pp pp
0 360
0 360
0 360
ITEM: ATOMS id type x y z
465298 1 171.75 111.75 96.75
652617 1 168.75 114.75 135.75
783538 1 171.75 147.75 162.75
869949 1 204.75 147.75 180.75
870187 1 198.75 153.75 180.75
884707 1 198.75 156.75 183.75
899107 1 198.75 156.75 186.75
900400 1 117.75 189.75 186.75
939994 1 99.75 99.75 195.75
955862 1 183.75 135.75 198.75
1028325 1 132.75 147.75 213.75
1028444 1 129.75 150.75 213.75
1042843 1 126.75 150.75 216.75
1042844 1 129.75 150.75 216.75
1042845 1 132.75 150.75 216.75
1057122 1 123.75 147.75 219.75
1057241 1 120.75 150.75 219.75
1057243 1 126.75 150.75 219.75
1057364 1 129.75 153.75 219.75
1071523 1 126.75 147.75 222.75
1071642 1 123.75 150.75 222.75
1071763 1 126.75 153.75 222.75
1071765 1 132.75 153.75 222.75
1071766 1 135.75 153.75 222.75
1071885 1 132.75 156.75 222.75
1084966 1 135.75 123.75 225.75
1085436 1 105.75 135.75 225.75
1086282 1 123.75 156.75 225.75
1086284 1 129.75 156.75 225.75
1100683 1 126.75 156.75 228.75
1129723 1 126.75 162.75 234.75
1144243 1 126.75 165.75 237.75
1288242 1 123.75 165.75 267.75
1347178 1 171.75 198.75 279.75
1360733 1 156.75 177.75 282.75
1361698 1 171.75 201.75 282.75
1375134 1 159.75 177.75 285.75
1375720 1 117.75 192.75 285.75
1462124 1 129.75 192.75 303.75
1537496 1 165.75 276.75 318.75
2380617 1 170.25 116.25 137.25
2453470 1 209.25 137.25 152.25
2569745 1 194.25 164.25 176.25
2612469 1 206.25 152.25 185.25
2612587 1 200.25 155.25 185.25
2612588 1 203.25 155.25 185.25
2657104 1 191.25 188.25 194.25
2667874 1 101.25 98.25 197.25
2741923 1 128.25 149.25 212.25
2756203 1 128.25 146.25 215.25
2756322 1 125.25 149.25 215.25
2756323 1 128.25 149.25 215.25
2770602 1 125.25 146.25 218.25
2770722 1 125.25 149.25 218.25
2770843 1 128.25 152.25 218.25
2770844 1 131.25 152.25 218.25
2771085 1 134.25 158.25 218.25
2785124 1 131.25 149.25 221.25
2785242 1 125.25 152.25 221.25
2785243 1 128.25 152.25 221.25
2799644 1 131.25 152.25 224.25
2799763 1 128.25 155.25 224.25
2799764 1 131.25 155.25 224.25
2799882 1 125.25 158.25 224.25
2799884 1 131.25 158.25 224.25
2813197 1 110.25 131.25 227.25
2814283 1 128.25 158.25 227.25
2827598 1 113.25 131.25 230.25
2827717 1 110.25 134.25 230.25
2843202 1 125.25 161.25 233.25
2843321 1 122.25 164.25 233.25
2857722 1 125.25 164.25 236.25
2857841 1 122.25 167.25 236.25
2901152 1 95.25 170.25 245.25
2987561 1 122.25 170.25 263.25
3074334 1 161.25 179.25 281.25
3074453 1 158.25 182.25 281.25
3119220 1 179.25 221.25 290.25
3160857 1 170.25 182.25 299.25
3175137 1 170.25 179.25 302.25
3249054 1 161.25 227.25 317.25
3263105 1 194.25 218.25 320.25
3263574 1 161.25 230.25 320.25
