ITEM: TIMESTEP
92000
ITEM: NUMBER OF ATOMS
102
ITEM: BOX BOUNDS pp pp pp
0 360
0 360
0 360
ITEM: ATOMS id type x y z
668600 1 237.75 153.75 138.75
697009 1 144.75 144.75 144.75
697512 1 213.75 156.75 144.75
725950 1 207.75 147.75 150.75
727502 1 183.75 186.75 150.75
741427 1 198.75 174.75 153.75
769633 1 216.75 159.75 159.75
769741 1 180.75 162.75 159.75
770344 1 189.75 177.75 159.75
770583 1 186.75 183.75 159.75
780303 1 186.75 66.75 162.75
784501 1 180.75 171.75 162.75
784502 1 183.75 171.75 162.75
784748 1 201.75 177.75 162.75
785106 1 195.75 186.75 162.75
798303 1 186.75 156.75 165.75
798664 1 189.75 165.75 165.75
798789 1 204.75 168.75 165.75
798909 1 204.75 171.75 165.75
799027 1 198.75 174.75 165.75
809704 1 189.75 81.75 168.75
813425 1 192.75 174.75 168.75
813427 1 198.75 174.75 168.75
813430 1 207.75 174.75 168.75
813550 1 207.75 177.75 168.75
828186 1 195.75 183.75 171.75
838748 1 201.75 87.75 174.75
841629 1 204.75 159.75 174.75
842347 1 198.75 177.75 174.75
842586 1 195.75 183.75 174.75
857590 1 207.75 198.75 177.75
871262 1 183.75 180.75 180.75
871633 1 216.75 189.75 180.75
897411 1 150.75 114.75 186.75
900313 1 216.75 186.75 186.75
911932 1 153.75 117.75 189.75
926931 1 150.75 132.75 192.75
943045 1 252.75 174.75 195.75
968223 1 186.75 84.75 201.75
968343 1 186.75 87.75 201.75
969654 1 159.75 120.75 201.75
969889 1 144.75 126.75 201.75
969893 1 156.75 126.75 201.75
982502 1 183.75 81.75 204.75
984047 1 138.75 120.75 204.75
984525 1 132.75 132.75 204.75
1012732 1 153.75 117.75 210.75
1012852 1 153.75 120.75 210.75
2453947 1 200.25 149.25 152.25
2468469 1 206.25 152.25 155.25
2469539 1 176.25 179.25 155.25
2482380 1 179.25 140.25 158.25
2483582 1 185.25 170.25 158.25
2483704 1 191.25 173.25 158.25
2483705 1 194.25 173.25 158.25
2483822 1 185.25 176.25 158.25
2483828 1 203.25 176.25 158.25
2497627 1 200.25 161.25 161.25
2497864 1 191.25 167.25 161.25
2498346 1 197.25 179.25 161.25
2512142 1 185.25 164.25 164.25
2512268 1 203.25 167.25 164.25
2512269 1 206.25 167.25 164.25
2512271 1 212.25 167.25 164.25
2512386 1 197.25 170.25 164.25
2512983 1 188.25 185.25 164.25
2526668 1 203.25 167.25 167.25
2526680 1 239.25 167.25 167.25
2526783 1 188.25 170.25 167.25
2526905 1 194.25 173.25 167.25
2526912 1 215.25 173.25 167.25
2527025 1 194.25 176.25 167.25
2527027 1 200.25 176.25 167.25
2527028 1 203.25 176.25 167.25
2527263 1 188.25 182.25 167.25
2527744 1 191.25 194.25 167.25
2536986 1 197.25 65.25 170.25
2537107 1 200.25 68.25 170.25
2541788 1 203.25 185.25 170.25
2551386 1 197.25 65.25 173.25
2552345 1 194.25 89.25 173.25
2555467 1 200.25 167.25 173.25
2556067 1 200.25 182.25 173.25
2556188 1 203.25 185.25 173.25
2570350 1 209.25 179.25 176.25
2571304 1 191.25 203.25 176.25
2571310 1 209.25 203.25 176.25
2584629 1 206.25 176.25 179.25
2595187 1 200.25 80.25 182.25
2595540 1 179.25 89.25 182.25
2598784 1 191.25 170.25 182.25
2624939 1 176.25 104.25 188.25
2652304 1 191.25 68.25 194.25
2668853 1 158.25 122.25 197.25
2669453 1 158.25 137.25 197.25
2670680 1 239.25 167.25 197.25
2681703 1 188.25 83.25 200.25
2696343 1 188.25 89.25 203.25
2696579 1 176.25 95.25 203.25
2697171 1 152.25 110.25 203.25
2697651 1 152.25 122.25 203.25
2710741 1 182.25 89.25 206.25
