ITEM: TIMESTEP
94239
ITEM: NUMBER OF ATOMS
67
ITEM: BOX BOUNDS pp pp pp
0 360
0 360
0 360
ITEM: ATOMS id type x y z c_myKE c_myPE
2511540 1 180.22 148.279 164.167 0 -6.25392
812202 1 116.108 144.879 171.437 0 -8.10579
841000 1 116.248 143.119 173.395 0 -7.66102
2569000 1 116.005 148.558 175.173 0 -8.07454
855521 1 119.555 143.198 176.926 0 -7.65336
2625775 1 161.081 120.817 187.752 0 -6.25201
973140 1 178.424 207.075 206.942 0 -8.30315
2715419 1 175.175 210.294 206.883 0 -8.43243
2717108 1 205.724 251.651 206.924 0 -6.8251
973139 1 175.196 207.16 210.068 0 -8.43663
1016339 1 171.884 210.228 210.099 0 -7.68647
2731628 1 205.841 254.905 210.181 0 -6.54908
2726086 1 133.6 110.01 212.044 0 -6.25547
2773021 1 175.164 204.016 213.388 0 -7.40046
2729701 1 178.521 203.902 213.251 0 -7.4081
1027977 1 167.475 133.518 215.126 0 -6.26539
2842854 1 160.909 149.663 235.637 0 -7.69608
2871415 1 164.127 143.335 242.095 0 -8.41206
2871535 1 164.101 146.501 241.949 0 -8.40491
2885695 1 164.13 140.071 245.248 0 -7.71625
2885814 1 161.044 143.191 245.164 0 -7.75259
2885815 1 164.156 143.299 245.153 0 -8.47606
2885816 1 167.387 143.295 245.247 0 -7.90708
2900215 1 164.224 143.217 248.235 0 -7.55523
2973533 1 157.893 178.3 264.316 0 -6.27412
3074088 1 139.963 173.83 286.646 0 -6.25438
2555447 1 137.185 172.243 167.01 0 -7.5202
2541043 1 137.231 168.918 170.316 0 -6.57414
813406 1 133.863 172.284 170.319 0 -6.56748
840998 1 108.359 141.523 173.441 0 -7.01605
826600 1 112.205 143.391 171.885 0 -7.50328
855277 1 108.278 144.648 176.669 0 -6.81662
843039 1 109.676 197.724 175.363 0 -6.25457
987660 1 176.745 208.603 202.211 0 -8.18551
2701139 1 180.121 211.831 202.16 0 -6.73593
2701018 1 176.839 208.67 205.419 0 -8.57975
987420 1 180.014 208.668 205.407 0 -7.88898
2729817 1 168.95 210.594 204.004 0 -6.79574
987659 1 176.709 211.774 205.254 0 -7.83132
2702466 1 194.555 246.855 205.322 0 -6.83382
2758380 1 176.862 205.519 208.647 0 -8.30473
1002057 1 173.604 208.719 208.503 0 -8.40071
1030620 1 176.763 208.69 208.475 0 -8.71891
987555 1 224.537 210.507 207.248 0 -6.25359
988864 1 191.307 246.759 208.578 0 -6.54011
2758378 1 176.866 205.431 211.523 0 -8.09768
1001579 1 173.585 208.821 211.682 0 -7.49485
1016221 1 176.862 202.232 214.903 0 -7.04263
1114975 1 162.678 151.044 233.981 0 -7.95262
1114976 1 165.765 151.297 234.261 0 -7.22474
1129134 1 159.668 144.697 237.165 0 -7.50745
1129255 1 162.494 147.956 237.28 0 -8.48689
1129256 1 165.77 148.035 237.416 0 -8.01725
1129375 1 162.573 151.092 237.191 0 -8.14961
2843800 1 116.042 173.474 235.958 0 -6.25515
1116425 1 194.554 188.191 237.191 0 -6.25681
2870813 1 156.302 128.788 239.095 0 -6.26817
1143535 1 162.441 144.884 240.518 0 -8.30175
1143654 1 159.401 148.091 240.431 0 -7.8417
1143655 1 162.489 148.059 240.402 0 -8.29482
2872856 1 176.674 186.248 240.374 0 -6.82427
1157936 1 165.721 144.96 243.592 0 -8.25146
2873222 1 179.922 186.118 243.638 0 -6.54496
1146192 1 218.142 214.945 242.344 0 -6.25336
1257537 1 167.085 112.864 265.904 0 -6.25527
1345142 1 184.968 147.959 285.024 0 -6.25509
1375262 1 183.024 181.794 293.36 0 -6.25404
