ITEM: TIMESTEP
97271
ITEM: NUMBER OF ATOMS
119
ITEM: BOX BOUNDS pp pp pp
0 360
0 360
0 360
ITEM: ATOMS id type x y z c_myKE c_myPE
1893647 1 136.759 183.372 27.0765 0 -6.25555
1995046 1 135.518 197.381 47.4679 0 -6.25533
1995058 1 173.793 200.569 47.4621 0 -6.25393
2024823 1 189.745 222.89 53.8366 0 -6.25354
2126935 1 164.231 259.926 76.1693 0 -6.25483
2212380 1 180.178 232.462 97.2496 0 -6.25473
2238769 1 143.126 168.656 103.644 0 -6.25581
2269124 1 127.142 210.155 110 0 -6.31274
2297333 1 157.731 193.016 113.103 0 -6.57021
2311614 1 159.221 191.122 117.562 0 -7.10833
2311735 1 162.488 194.287 117.595 0 -6.65057
2297565 1 130.319 200.544 116.406 0 -8.05681
2324818 1 173.789 157.838 120.828 0 -6.25694
2325301 1 183.372 171.853 120.829 0 -6.25724
2354810 1 146.545 193.701 128.928 0 -6.56268
2386624 1 190.986 272.685 133.578 0 -6.25322
2414341 1 183.202 242.192 136.657 0 -6.54286
2469286 1 133.537 171.834 154.669 0 -6.25359
2515873 1 221.671 264.426 164.285 0 -6.7917
802393 1 219.721 266.279 165.417 0 -6.81811
828899 1 173.707 202.451 168.716 0 -7.53864
828657 1 170.129 197.072 170.325 0 -7.59161
843178 1 168.069 200.748 172.046 0 -7.95805
2556657 1 173.713 197.147 173.751 0 -7.54709
2556538 1 171.815 200.499 175.647 0 -7.04489
2584618 1 173.854 175.025 178.25 0 -6.9181
871139 1 176.949 178.122 178.255 0 -6.90278
2599258 1 173.779 178.228 181.59 0 -6.60861
886143 1 184.607 193.02 181.424 0 -6.36649
2616059 1 176.89 247.004 184.494 0 -6.6381
2616180 1 180.14 250.428 184.584 0 -7.67982
2757652 1 154.633 181.406 216.506 0 -6.25547
2758024 1 192.924 192.92 216.489 0 -6.25563
2858695 1 162.363 189.623 238.736 0 -7.04095
2930470 1 208.614 181.309 254.965 0 -7.60586
1245429 1 211.953 174.726 264.398 0 -8.14906
1259949 1 208.639 178.165 264.41 0 -7.00527
1288750 1 211.993 178.216 267.767 0 -6.77515
3073871 1 212.059 165.478 289.839 0 -6.25957
3076169 1 270.804 228.151 288.507 0 -6.53648
3102306 1 199.416 156.077 293.191 0 -6.5467
3090568 1 267.549 228.046 291.765 0 -6.82458
3202744 1 190.968 148.29 315.366 0 -6.25564
3189314 1 224.806 171.886 314.156 0 -6.26666
3205643 1 253.541 222.93 317.293 0 -6.25809
3232876 1 231.031 180.027 325.064 0 -7.21749
1519277 1 231.106 180.185 328.084 0 -8.00602
3247396 1 229.395 184.732 326.764 0 -8.01601
1533677 1 231.048 183.262 328.359 0 -8.64996
1534036 1 227.907 186.536 328.322 0 -7.52353
1533797 1 231.144 183.313 331.362 0 -8.55776
3290478 1 234.375 183.347 331.417 0 -8.12438
3276317 1 231.127 186.563 331.397 0 -8.24651
3289286 1 259.772 145.024 334.435 0 -6.60271
1561407 1 263.137 148.327 334.397 0 -7.66117
3290476 1 231.242 183.39 334.385 0 -7.72292
1575807 1 261.232 149.497 336.2 0 -7.15552
3289285 1 259.593 151.369 337.781 0 -7.78801
3303805 1 261.144 152.903 339.631 0 -7.79638
3318446 1 262.861 154.84 341.045 0 -7.44786
3318207 1 264.514 152.903 342.711 0 -7.02175
3392601 1 247.138 216.517 358.783 0 -6.25478
282534 1 157.494 227.684 51.0029 0 -6.25513
368099 1 175.386 202.157 70.1438 0 -6.25511
397498 1 176.511 221.389 76.4091 0 -6.91628
412020 1 178.51 223.226 77.8916 0 -6.76473
569566 1 132.042 199.056 114.669 0 -7.44581
598014 1 157.48 189.367 119.255 0 -6.92482
583625 1 195.778 192.577 117.984 0 -6.25574
583846 1 132.165 195.897 117.801 0 -7.57329
583966 1 132.103 199.093 117.853 0 -8.03197
583967 1 135.276 199.112 117.822 0 -7.5684
584086 1 132.029 202.273 117.899 0 -7.43308
598247 1 135.041 195.752 121.194 0 -7.27703
598366 1 132.167 199.147 121.057 0 -7.56918
640613 1 154.291 175.369 128.783 0 -6.26823
626931 1 148.081 192.208 127.412 0 -6.96871
641210 1 146.329 189.186 130.415 0 -7.01136
655610 1 144.484 190.963 130.561 0 -7.50255
656220 1 181.771 205.33 130.736 0 -6.25396
671943 1 186.362 239.028 137.23 0 -6.54272
2473163 1 253.195 272.327 153.05 0 -6.2544
827453 1 154.276 162.608 172.199 0 -6.25722
2556778 1 170.123 202.439 172.011 0 -7.52526
885912 1 216.86 188.136 182.999 0 -6.2541
902699 1 175.542 251.951 186.167 0 -7.16906
916979 1 175.378 248.765 189.533 0 -6.74384
2645099 1 178.579 251.959 189.249 0 -7.17622
918205 1 256.375 278.707 191.321 0 -6.25411
933444 1 255.134 302.983 194.512 0 -6.25429
1015723 1 122.371 192.572 211.723 0 -6.2532
1145096 1 160.496 188.073 240.519 0 -6.91308
1145215 1 160.868 191.387 240.489 0 -6.74919
1173910 1 208.6 182.968 249.378 0 -8.03054
2887510 1 210.424 184.889 249.75 0 -7.50511
1216870 1 208.697 179.235 253.303 0 -8.07455
1188191 1 212.349 182.963 253.113 0 -7.14626
1202589 1 204.13 186.163 256.329 0 -6.75699
2959150 1 211.922 176.631 258.915 0 -7.87827
2944752 1 215.354 180.06 259.228 0 -7.53411
1245431 1 215.544 176.493 262.725 0 -8.01986
1231153 1 217.343 178.39 262.879 0 -7.86504
1244598 1 234.052 151.112 264.657 0 -6.25424
3102185 1 197.833 154.305 291.421 0 -6.82848
1431179 1 175.374 137.123 304.197 0 -6.25548
1417036 1 227.661 141.565 302.952 0 -6.25603
1420041 1 243.681 223.188 303.038 0 -6.54085
3133759 1 240.424 226.441 302.927 0 -6.82458
1520364 1 255.143 208.578 323.311 0 -6.25399
3232997 1 230.974 183.008 325.279 0 -7.97165
3276076 1 232.697 181.665 329.826 0 -8.1551
1533916 1 229.454 184.856 329.932 0 -8.33687
1534755 1 224.778 214.733 330.027 0 -7.06742
3291674 1 226.596 216.556 330.028 0 -7.05808
1563914 1 223.356 217.974 332.533 0 -6.77577
1576046 1 259.45 157.639 334.73 0 -6.64634
1575805 1 258.274 153.02 339.501 0 -7.33446
3303806 1 262.886 150.944 341.061 0 -7.45487
1676484 1 256.326 149.887 360.391 0 -6.25215
