ITEM: TIMESTEP
91000
ITEM: NUMBER OF ATOMS
83
ITEM: BOX BOUNDS pp pp pp
0 360
0 360
0 360
ITEM: ATOMS id type x y z c_myKE c_myPE
2309355 1 226.653 132.72 119.8 0.03163 -7.04383
2337554 1 224.708 116.167 122.815 0.134136 -6.69944
2381594 1 223.1 136.975 133.635 0.0563831 -6.30256
2480588 1 203.683 89.0443 155.819 0.15086 -7.08013
2482256 1 167.126 135.551 155.951 0.239349 -6.52766
782471 1 210.03 114.576 161.243 0.475825 -7.4382
2510469 1 207.308 117.799 164.417 0.23251 -8.18481
811510 1 207.256 120.912 164.342 0.179537 -7.50381
2524630 1 210.269 111.677 167.595 0.0827109 -7.66488
2524750 1 210.409 114.498 167.379 0.209642 -8.54049
2539270 1 210.369 117.78 167.439 0.0849664 -8.25198
825790 1 208.919 119.362 168.867 0.0751193 -8.56971
2539399 1 240.44 119.763 167.331 0.0136104 -6.60534
2539150 1 210.347 114.732 170.64 0.162403 -8.75642
2553421 1 183.393 111.5 173.805 0.0575146 -7.02105
2582590 1 211.837 119.717 175.179 0.193367 -7.86181
840549 1 208.952 122.615 175.328 0.312865 -7.85652
854827 1 205.657 125.984 175.237 0.0100331 -7.5677
2567950 1 211.704 116.511 178.389 0.187189 -7.42218
2585331 1 151.136 196.425 180.141 0.134296 -7.02679
2585452 1 154.641 199.478 179.639 0.0337732 -6.22571
925497 1 168.961 94.4883 193.956 0.0343081 -7.57356
940016 1 165.508 97.2604 194.048 0.470776 -6.94841
954416 1 165.65 93.8042 197.202 0.109255 -7.67396
2658514 1 97.1322 227.8 196.144 0.164874 -7.29456
2627696 1 168.725 167.394 200.739 0.16699 -7.55225
2687435 1 98.2624 229.239 201.011 0.151944 -7.14481
2697524 1 127.013 117.475 203.526 0.10499 -6.78455
1000376 1 162.304 170.688 203.972 0.205896 -7.21906
2613655 1 165.881 170.59 203.749 0.0412644 -7.86378
2699698 1 168.872 173.989 204.034 0.225975 -7.38641
2700048 1 141.525 183.575 205.63 0.0359146 -5.73335
2730276 1 101.894 220.096 212.537 0.17967 -5.66329
2783818 1 171.807 111.171 223.15 0.241786 -6.43424
1200665 1 194.04 132.596 251.828 0.180235 -5.75428
595875 1 224.912 134.736 119.263 0.0909747 -7.31355
667994 1 221.315 135.518 135.299 0.167654 -7.17519
667995 1 224.457 135.219 135.294 0.465397 -6.85214
685010 1 146.492 207.133 140.581 0.280189 -6.30378
754257 1 169.006 134.248 154.168 0.336543 -7.04247
768546 1 195.761 130.777 159.305 0.212016 -5.99776
782470 1 208.791 116.255 162.751 0.362366 -7.68518
2496071 1 212.005 116.283 162.743 0.0298477 -8.23993
2510589 1 205.65 119.427 162.667 0.400919 -7.34353
796870 1 208.882 116.285 165.961 0.0307956 -8.59061
2524870 1 208.881 119.447 166.026 0.086127 -8.58744
797230 1 208.774 122.364 165.875 0.0264934 -8.0964
797121 1 243.388 122.731 166.07 0.374261 -6.34304
811151 1 211.798 113.033 169.106 0.0726021 -7.43053
825671 1 210.677 117.799 170.561 0.0611452 -8.27455
811389 1 207.227 121.219 170.242 0.28638 -8.41276
826031 1 210.442 120.943 170.504 0.460016 -8.27477
2539630 1 210.619 124.248 170.753 0.230036 -7.95542
2553670 1 211.937 116.307 172.267 0.0315618 -8.3525
2568190 1 210.306 118.03 173.543 0.225189 -8.38849
2553672 1 213.826 117.83 173.707 0.114294 -8.25966
825681 1 245.522 118.113 171.647 0.027174 -6.92302
2553910 1 210.459 121.082 173.563 0.218811 -8.5253
840310 1 207.311 124.28 173.41 0.2397 -7.89926
854102 1 183.198 108.51 176.839 0.0848924 -6.95797
868870 1 210.334 121.18 177.015 0.183839 -8.13496
2653497 1 170.772 95.799 195.846 0.191099 -7.11734
2653737 1 167.192 98.6206 195.796 0.119804 -6.93539
954536 1 164.047 95.5897 198.595 0.193003 -6.66157
2699456 1 163.885 165.675 199.019 0.013219 -6.82689
2627693 1 160.949 169.02 199.233 0.105097 -7.01494
2658515 1 98.91 226.321 197.607 0.361685 -7.22293
945034 1 95.6621 229.752 197.883 0.529792 -7.18283
971694 1 167.083 165.803 202.2 0.145712 -7.70968
2685294 1 164.122 169.006 202.332 0.0954178 -8.3796
2699219 1 167.316 169.266 202.129 0.374515 -7.76935
2699695 1 167.351 172.245 202.27 0.144089 -8.21243
2685295 1 167.373 172.109 205.459 0.243734 -7.80727
985133 1 153.29 143.667 207.168 0.0321085 -6.4841
985976 1 167.052 169.079 208.574 0.0900921 -7.24776
986568 1 139.786 185.081 207.374 0.337611 -7.22975
1016803 1 125.643 224.711 214.858 0.0909152 -7.017
2759203 1 124.521 226.54 216.78 0.11638 -6.77816
1055578 1 170.194 103.671 221.285 0.115195 -6.89137
1055697 1 167.188 106.604 221.382 0.104652 -7.89116
1070098 1 170.513 106.356 224.655 0.148104 -7.24405
1257541 1 181.731 114.679 267.732 0.291239 -6.88633
1272182 1 186.003 119.307 269.075 0.0196658 -6.70245
