ITEM: TIMESTEP
91365
ITEM: NUMBER OF ATOMS
82
ITEM: BOX BOUNDS pp pp pp
0 360
0 360
0 360
ITEM: ATOMS id type x y z
609675 1 222.75 120.75 126.75
653594 1 219.75 138.75 135.75
752588 1 201.75 93.75 156.75
796750 1 207.75 117.75 165.75
796869 1 204.75 120.75 165.75
811150 1 207.75 117.75 168.75
811151 1 210.75 117.75 168.75
811270 1 207.75 120.75 168.75
811389 1 204.75 123.75 168.75
811400 1 237.75 123.75 168.75
825670 1 207.75 120.75 171.75
825671 1 210.75 120.75 171.75
825681 1 240.75 120.75 171.75
825790 1 207.75 123.75 171.75
839822 1 183.75 114.75 174.75
840071 1 210.75 120.75 174.75
840190 1 207.75 123.75 174.75
840191 1 210.75 123.75 174.75
840309 1 204.75 126.75 174.75
854102 1 183.75 111.75 177.75
854471 1 210.75 120.75 177.75
854590 1 207.75 123.75 177.75
871852 1 153.75 195.75 180.75
925617 1 168.75 99.75 192.75
925736 1 165.75 102.75 192.75
940016 1 165.75 99.75 195.75
940137 1 168.75 102.75 195.75
945035 1 102.75 225.75 195.75
957056 1 165.75 165.75 198.75
957177 1 168.75 168.75 198.75
959436 1 105.75 225.75 198.75
959555 1 102.75 228.75 198.75
971576 1 165.75 168.75 201.75
971697 1 168.75 171.75 201.75
971817 1 168.75 174.75 201.75
986568 1 141.75 183.75 204.75
1016676 1 105.75 216.75 210.75
1186265 1 192.75 135.75 246.75
1257662 1 183.75 120.75 261.75
2309355 1 224.25 134.25 122.25
2309474 1 221.25 137.25 122.25
2381473 1 218.25 137.25 137.25
2381474 1 221.25 137.25 137.25
2413010 1 149.25 206.25 143.25
2467857 1 170.25 137.25 155.25
2496545 1 194.25 134.25 161.25
2510229 1 206.25 116.25 164.25
2510349 1 206.25 119.25 164.25
2510468 1 203.25 122.25 164.25
2524630 1 209.25 116.25 167.25
2524749 1 206.25 119.25 167.25
2524868 1 203.25 122.25 167.25
2524869 1 206.25 122.25 167.25
2539150 1 209.25 119.25 170.25
2539269 1 206.25 122.25 170.25
2539280 1 239.25 122.25 170.25
2539389 1 206.25 125.25 170.25
2553670 1 209.25 122.25 173.25
2553789 1 206.25 125.25 173.25
2568189 1 206.25 125.25 176.25
2568308 1 203.25 128.25 176.25
2585452 1 155.25 197.25 179.25
2653617 1 170.25 101.25 194.25
2668015 1 164.25 101.25 197.25
2683123 1 128.25 119.25 200.25
2685055 1 164.25 167.25 200.25
2685056 1 167.25 167.25 200.25
2685176 1 167.25 170.25 200.25
2687435 1 104.25 227.25 200.25
2699575 1 164.25 170.25 203.25
2699576 1 167.25 170.25 203.25
2699696 1 167.25 173.25 203.25
2700048 1 143.25 182.25 203.25
2713012 1 155.25 146.25 206.25
2713976 1 167.25 170.25 206.25
2744803 1 128.25 221.25 212.25
2759323 1 128.25 224.25 215.25
2769057 1 170.25 107.25 218.25
2769176 1 167.25 110.25 218.25
2769297 1 170.25 113.25 218.25
2783577 1 170.25 110.25 221.25
2985541 1 182.25 119.25 263.25
