ITEM: TIMESTEP
92000
ITEM: NUMBER OF ATOMS
57
ITEM: BOX BOUNDS pp pp pp
0 360
0 360
0 360
ITEM: ATOMS id type x y z c_myKE c_myPE
681179 1 175.241 103.984 141.778 0.0363308 -6.17271
770577 1 167.554 184.767 160.963 0.00979467 -6.63079
2613895 1 160.966 189.883 183.165 0.21657 -6.27817
900295 1 167.307 189.314 184.578 0.100145 -7.84281
2614138 1 171.374 194.358 183.369 0.0354833 -6.02938
2612330 1 148.272 148.851 186.682 0.0687522 -5.92873
900536 1 163.825 196.683 188.148 0.206422 -7.39757
2628296 1 165.553 192.807 190.239 0.00952277 -7.62832
940856 1 162.378 116.78 192.834 0.0949763 -7.72539
912296 1 168.988 120.084 192.54 0.13587 -8.10117
2641848 1 141.829 165.306 192.969 0.0247264 -6.55327
2668614 1 161.432 114.29 197.548 0.220251 -7.63723
2654336 1 165.778 113.437 195.869 0.307497 -8.55635
2668616 1 165.815 113.357 199.115 0.0273963 -7.65614
2696935 1 164.24 97.2428 205.904 0.187967 -5.36697
2811892 1 154.839 92.415 229.431 0.0832234 -6.24347
2823664 1 192.936 23.7405 235.735 0.615021 -6.53345
1112573 1 152.851 85.8858 235.536 0.203482 -6.55639
2854972 1 152.834 89.1642 238.901 0.00166469 -6.59673
2855339 1 176.771 97.3119 238.576 0.152626 -5.98294
2866738 1 170.283 17.7121 240.698 0.186593 -6.18632
2895551 1 215.133 20.6514 248.648 0.0178116 -5.967
2912098 1 174.004 78.2555 253.769 0.444039 -6.46233
2955416 1 165.479 79.296 260.656 0.404186 -6.81331
3055131 1 151.468 52.72 282.075 0.0233458 -6.29313
1355454 1 158.994 36.597 286.914 0.00703863 -6.31923
3070260 1 178.065 71.6357 286.752 0.0895446 -5.8831
3125824 1 194.213 15.604 302.521 0.110397 -6.73947
742377 1 165.57 200.651 153.104 0.269444 -6.5874
771417 1 167.166 205.278 157.164 0.200271 -7.20421
767575 1 163.642 103.376 159.709 0.211499 -6.58791
886017 1 167.346 191.295 182.72 0.100579 -7.70498
886255 1 159.429 195.862 184.948 0.0785237 -6.59651
2628297 1 165.707 191.061 188.201 0.167943 -7.58874
926695 1 164.071 118.182 191.004 0.0493313 -8.22276
2625776 1 167.241 118.253 191.133 0.0165919 -7.62373
2654695 1 164.341 121.421 191.167 0.0650001 -7.85754
2654216 1 164.256 115.108 194.322 0.182949 -8.15279
2668615 1 164.326 118.281 194.311 0.238538 -8.1967
2654577 1 167.511 118.455 194.411 0.302606 -8.22126
926095 1 164.107 111.994 197.421 0.0610581 -7.5192
2683017 1 167.471 114.822 197.638 0.0506143 -7.36355
2654455 1 164.194 118.075 197.576 0.173726 -8.30485
941097 1 167.117 124.745 197.716 0.198796 -6.88453
1012486 1 132.181 106.392 214.021 0.185263 -6.63001
1042268 1 200.881 132.058 217.982 0.375075 -6.43597
1054613 1 154.769 77.7448 221.236 0.473155 -6.12323
1054734 1 157.807 81.1824 221.25 0.0127352 -6.25006
1043569 1 143.281 169.366 219.91 0.166023 -6.58851
2797980 1 178.503 108.56 227.525 0.260969 -6.11482
2823666 1 197.725 22.0356 231.024 0.381548 -6.42762
2823785 1 195.914 23.568 232.515 0.216231 -7.33043
1110067 1 197.595 22.1703 233.905 0.402564 -6.92257
1157105 1 194.215 124.613 243.258 0.275984 -5.80743
1167438 1 235.75 15.7705 248.62 0.0331564 -6.12397
1169687 1 136.976 76.712 248.956 0.112201 -5.95011
1211088 1 138.069 26.6991 258.36 0.430859 -6.03544
