ITEM: TIMESTEP
85000
ITEM: NUMBER OF ATOMS
41
ITEM: BOX BOUNDS pp pp pp
0 360
0 360
0 360
ITEM: ATOMS id type x y z
841609 1 144.75 159.75 174.75
841973 1 156.75 168.75 174.75
856248 1 141.75 165.75 177.75
856252 1 153.75 165.75 177.75
899449 1 144.75 165.75 186.75
899931 1 150.75 177.75 186.75
913494 1 159.75 156.75 189.75
914331 1 150.75 177.75 189.75
969291 1 150.75 111.75 201.75
1012970 1 147.75 123.75 210.75
1054975 1 162.75 93.75 219.75
1068649 1 144.75 75.75 222.75
1069375 1 162.75 93.75 222.75
1097090 1 147.75 66.75 228.75
1098304 1 189.75 96.75 228.75
1098305 1 192.75 96.75 228.75
1112093 1 156.75 81.75 231.75
1126850 1 147.75 90.75 234.75
1155052 1 153.75 75.75 240.75
1155291 1 150.75 81.75 240.75
1256449 1 144.75 90.75 261.75
2440243 1 128.25 167.25 149.25
2497490 1 149.25 158.25 161.25
2555684 1 131.25 173.25 173.25
2569369 1 146.25 155.25 176.25
2570091 1 152.25 173.25 176.25
2711691 1 152.25 113.25 206.25
2739528 1 143.25 89.25 212.25
2767848 1 143.25 77.25 218.25
2782006 1 137.25 71.25 221.25
2796548 1 203.25 74.25 224.25
2796904 1 191.25 83.25 224.25
2796906 1 197.25 83.25 224.25
2811547 1 200.25 89.25 227.25
2811888 1 143.25 98.25 227.25
2825333 1 158.25 74.25 230.25
2826421 1 182.25 101.25 230.25
2840093 1 158.25 83.25 233.25
2840581 1 182.25 95.25 233.25
2840701 1 182.25 98.25 233.25
2897928 1 143.25 89.25 245.25
