ITEM: TIMESTEP
89230
ITEM: NUMBER OF ATOMS
83
ITEM: BOX BOUNDS pp pp pp
0 360
0 360
0 360
ITEM: ATOMS id type x y z
483039 1 114.75 195.75 99.75
583480 1 117.75 186.75 120.75
584927 1 138.75 222.75 120.75
585276 1 105.75 231.75 120.75
597879 1 114.75 186.75 123.75
612659 1 174.75 195.75 126.75
626818 1 171.75 189.75 129.75
626937 1 168.75 192.75 129.75
626939 1 174.75 192.75 129.75
627056 1 165.75 195.75 129.75
627057 1 168.75 195.75 129.75
641457 1 168.75 195.75 132.75
657039 1 114.75 225.75 135.75
742134 1 159.75 192.75 153.75
742490 1 147.75 201.75 153.75
742609 1 144.75 204.75 153.75
756535 1 162.75 192.75 156.75
812801 1 120.75 159.75 168.75
827321 1 120.75 162.75 171.75
988014 1 159.75 219.75 204.75
1000490 1 147.75 171.75 207.75
1000611 1 150.75 174.75 207.75
1000613 1 156.75 174.75 207.75
1000732 1 153.75 177.75 207.75
1014889 1 144.75 171.75 210.75
1015131 1 150.75 177.75 210.75
1029050 1 147.75 165.75 213.75
1029171 1 150.75 168.75 213.75
1029292 1 153.75 171.75 213.75
1029409 1 144.75 174.75 213.75
1029530 1 147.75 177.75 213.75
1029532 1 153.75 177.75 213.75
1043570 1 147.75 168.75 216.75
1043691 1 150.75 171.75 216.75
1060853 1 156.75 240.75 219.75
1072727 1 138.75 177.75 222.75
1075252 1 153.75 240.75 222.75
1100685 1 132.75 156.75 228.75
1100804 1 129.75 159.75 228.75
1101045 1 132.75 165.75 228.75
1133204 1 129.75 249.75 234.75
1190334 1 159.75 237.75 246.75
1259337 1 168.75 162.75 261.75
2282315 1 104.25 179.25 116.25
2283886 1 137.25 218.25 116.25
2296835 1 104.25 182.25 119.25
2298285 1 134.25 218.25 119.25
2298406 1 137.25 221.25 119.25
2313156 1 107.25 230.25 122.25
2340537 1 170.25 194.25 128.25
2340656 1 167.25 197.25 128.25
2369338 1 173.25 194.25 134.25
2410257 1 170.25 137.25 143.25
2441459 1 176.25 197.25 149.25
2441578 1 173.25 200.25 149.25
2470133 1 158.25 194.25 155.25
2484413 1 158.25 191.25 158.25
2484534 1 161.25 194.25 158.25
2625645 1 134.25 122.25 188.25
2640046 1 137.25 122.25 191.25
2640063 1 188.25 122.25 191.25
2640182 1 185.25 125.25 191.25
2699586 1 197.25 170.25 203.25
2699691 1 152.25 173.25 203.25
2701494 1 161.25 218.25 203.25
2714090 1 149.25 173.25 206.25
2714092 1 155.25 173.25 206.25
2716013 1 158.25 221.25 206.25
2742650 1 149.25 167.25 212.25
2742769 1 146.25 170.25 212.25
2742892 1 155.25 173.25 212.25
2743011 1 152.25 176.25 212.25
2743130 1 149.25 179.25 212.25
2770976 1 167.25 155.25 218.25
2800727 1 140.25 179.25 224.25
2814765 1 134.25 170.25 227.25
2829045 1 134.25 167.25 230.25
2846804 1 131.25 251.25 233.25
2861204 1 131.25 251.25 236.25
2918333 1 158.25 239.25 248.25
2918334 1 161.25 239.25 248.25
2972816 1 167.25 161.25 260.25
3001019 1 176.25 146.25 266.25
