ITEM: TIMESTEP
94000
ITEM: NUMBER OF ATOMS
98
ITEM: BOX BOUNDS pp pp pp
0 360
0 360
0 360
ITEM: ATOMS id type x y z
711765 1 132.75 153.75 147.75
770076 1 105.75 171.75 159.75
798409 1 144.75 159.75 165.75
811979 1 174.75 138.75 168.75
827432 1 93.75 165.75 171.75
856480 1 117.75 171.75 177.75
856828 1 81.75 180.75 177.75
858031 1 90.75 210.75 177.75
870764 1 129.75 168.75 180.75
871119 1 114.75 177.75 180.75
871591 1 90.75 189.75 180.75
871598 1 111.75 189.75 180.75
871711 1 90.75 192.75 180.75
885631 1 90.75 180.75 183.75
885634 1 99.75 180.75 183.75
886350 1 87.75 198.75 183.75
886351 1 90.75 198.75 183.75
898136 1 165.75 132.75 186.75
899793 1 96.75 174.75 186.75
912546 1 195.75 132.75 189.75
912779 1 174.75 138.75 189.75
957626 1 75.75 180.75 198.75
1012751 1 210.75 117.75 210.75
1013109 1 204.75 126.75 210.75
1013346 1 195.75 132.75 210.75
1013361 1 240.75 132.75 210.75
1027627 1 198.75 129.75 213.75
1027746 1 195.75 132.75 213.75
1027755 1 222.75 132.75 213.75
1027868 1 201.75 135.75 213.75
1070955 1 222.75 132.75 222.75
1071443 1 246.75 144.75 222.75
1099638 1 231.75 129.75 228.75
1170814 1 279.75 108.75 243.75
1172358 1 231.75 147.75 243.75
1199493 1 276.75 105.75 249.75
1213651 1 270.75 99.75 252.75
1213890 1 267.75 105.75 252.75
1271130 1 267.75 96.75 264.75
1271490 1 267.75 105.75 264.75
1271492 1 273.75 105.75 264.75
1271612 1 273.75 108.75 264.75
1300052 1 273.75 99.75 270.75
1329210 1 267.75 108.75 276.75
1343970 1 267.75 117.75 279.75
1358845 1 252.75 129.75 282.75
1373126 1 255.75 126.75 285.75
1403373 1 276.75 162.75 291.75
1403975 1 282.75 177.75 291.75
2454043 1 128.25 152.25 152.25
2468447 1 140.25 152.25 155.25
2468448 1 143.25 152.25 155.25
2482249 1 146.25 137.25 158.25
2542590 1 89.25 206.25 170.25
2554378 1 173.25 140.25 173.25
2554490 1 149.25 143.25 173.25
2555318 1 113.25 164.25 173.25
2555433 1 98.25 167.25 173.25
2555560 1 119.25 170.25 173.25
2569712 1 95.25 164.25 176.25
2571029 1 86.25 197.25 176.25
2598987 1 80.25 176.25 182.25
2613875 1 104.25 188.25 185.25
2614112 1 95.25 194.25 185.25
2640544 1 191.25 134.25 191.25
2640657 1 170.25 137.25 191.25
2642432 1 95.25 182.25 191.25
2642435 1 104.25 182.25 191.25
2654945 1 194.25 134.25 194.25
2656586 1 77.25 176.25 194.25
2670992 1 95.25 176.25 197.25
2671345 1 74.25 185.25 197.25
2686236 1 107.25 197.25 200.25
2726229 1 206.25 116.25 209.25
2741226 1 197.25 131.25 212.25
2741355 1 224.25 134.25 212.25
2755626 1 197.25 131.25 215.25
2755998 1 233.25 140.25 215.25
2784560 1 239.25 134.25 221.25
2828362 1 245.25 149.25 230.25
2870595 1 224.25 125.25 239.25
2870715 1 224.25 128.25 239.25
2900126 1 257.25 143.25 245.25
2914030 1 209.25 131.25 248.25
2941772 1 275.25 104.25 254.25
2970692 1 275.25 107.25 260.25
2984971 1 272.25 104.25 263.25
2985090 1 269.25 107.25 263.25
2985091 1 272.25 107.25 263.25
2985331 1 272.25 113.25 263.25
2999495 1 284.25 107.25 266.25
3028290 1 269.25 107.25 272.25
3028413 1 278.25 110.25 272.25
3029009 1 266.25 125.25 272.25
3042689 1 266.25 107.25 275.25
3042691 1 272.25 107.25 275.25
3043047 1 260.25 116.25 275.25
3043283 1 248.25 122.25 275.25
