ITEM: TIMESTEP
93000
ITEM: NUMBER OF ATOMS
92
ITEM: BOX BOUNDS pp pp pp
0 360
0 360
0 360
ITEM: ATOMS id type x y z
697009 1 144.75 144.75 144.75
741882 1 123.75 186.75 153.75
742126 1 135.75 192.75 153.75
755694 1 159.75 171.75 156.75
770448 1 141.75 180.75 159.75
784493 1 156.75 171.75 162.75
828046 1 135.75 180.75 171.75
841974 1 159.75 168.75 174.75
842210 1 147.75 174.75 174.75
842211 1 150.75 174.75 174.75
842212 1 153.75 174.75 174.75
857199 1 114.75 189.75 177.75
871371 1 150.75 183.75 180.75
871836 1 105.75 195.75 180.75
885176 1 165.75 168.75 183.75
886476 1 105.75 201.75 183.75
899811 1 150.75 174.75 186.75
914814 1 159.75 189.75 189.75
928500 1 177.75 171.75 192.75
942534 1 159.75 162.75 195.75
942773 1 156.75 168.75 195.75
942774 1 159.75 168.75 195.75
942775 1 162.75 168.75 195.75
957413 1 156.75 174.75 198.75
971453 1 156.75 165.75 201.75
985365 1 132.75 153.75 204.75
1000121 1 120.75 162.75 207.75
1000488 1 141.75 171.75 207.75
1014044 1 129.75 150.75 210.75
1014644 1 129.75 165.75 210.75
1028562 1 123.75 153.75 213.75
1029047 1 138.75 165.75 213.75
1070925 1 132.75 132.75 222.75
1071762 1 123.75 153.75 222.75
1114601 1 120.75 144.75 231.75
1186989 1 204.75 153.75 246.75
1244709 1 204.75 156.75 258.75
1416919 1 234.75 141.75 294.75
1445720 1 237.75 141.75 300.75
1445964 1 249.75 147.75 300.75
1460242 1 243.75 144.75 303.75
1460718 1 231.75 156.75 303.75
1474880 1 237.75 150.75 306.75
1488435 1 222.75 129.75 309.75
1488921 1 240.75 141.75 309.75
2440968 1 143.25 185.25 149.25
2441205 1 134.25 191.25 149.25
2441209 1 146.25 191.25 149.25
2441332 1 155.25 194.25 149.25
2454895 1 164.25 173.25 152.25
2498571 1 152.25 185.25 161.25
2513435 1 104.25 197.25 164.25
2526415 1 164.25 161.25 167.25
2527249 1 146.25 182.25 167.25
2540932 1 155.25 164.25 170.25
2555453 1 158.25 167.25 173.25
2555692 1 155.25 173.25 173.25
2584611 1 152.25 176.25 179.25
2598772 1 155.25 170.25 182.25
2599371 1 152.25 185.25 182.25
2600076 1 107.25 203.25 182.25
2613517 1 110.25 179.25 185.25
2614131 1 152.25 194.25 185.25
2627930 1 149.25 179.25 188.25
2656730 1 149.25 179.25 194.25
2657917 1 110.25 209.25 194.25
2670298 1 173.25 158.25 197.25
2685175 1 164.25 170.25 200.25
2698844 1 131.25 152.25 203.25
2713485 1 134.25 158.25 206.25
2727163 1 128.25 140.25 209.25
2727643 1 128.25 152.25 209.25
2728240 1 119.25 167.25 209.25
2742162 1 125.25 155.25 212.25
2756801 1 122.25 161.25 215.25
2757048 1 143.25 167.25 215.25
2770241 1 122.25 137.25 218.25
2770606 1 137.25 146.25 218.25
2771083 1 128.25 158.25 218.25
2828705 1 194.25 158.25 230.25
2857384 1 191.25 155.25 236.25
3117075 1 224.25 167.25 290.25
3130274 1 221.25 137.25 293.25
3145399 1 236.25 155.25 296.25
3158718 1 233.25 128.25 299.25
3159081 1 242.25 137.25 299.25
3173957 1 230.25 149.25 302.25
3187994 1 221.25 140.25 305.25
3188239 1 236.25 146.25 305.25
3202522 1 245.25 143.25 308.25
3202639 1 236.25 146.25 308.25
3231443 1 248.25 146.25 314.25
