ITEM: TIMESTEP
91000
ITEM: NUMBER OF ATOMS
56
ITEM: BOX BOUNDS pp pp pp
0 360
0 360
0 360
ITEM: ATOMS id type x y z c_myKE c_myPE
668791 1 84.6568 157.996 133.45 0.131088 -6.05541
2396935 1 163.935 162.547 139.653 0.372158 -6.36884
2411334 1 162.2 162.531 141.626 0.0647939 -7.30758
2411335 1 164.18 164.39 141.372 0.0728491 -7.74987
2442414 1 159.118 225.15 146.038 0.00287296 -7.10211
2442653 1 156.088 231.116 146.391 0.16745 -6.25818
2444333 1 155.941 275.694 146.323 0.094334 0
2457534 1 161.29 243.735 149.914 0.0307414 -6.32972
2458613 1 155.86 272.98 149.484 0.012688 -7.43358
758692 1 156.132 251.428 154.629 0.136361 -7.70897
2472413 1 158.969 254.668 154.675 0.251262 -7.2843
2486693 1 159.288 251.817 157.745 0.326961 -7.89955
2486574 1 162.478 251.613 157.748 0.0249472 -8.07039
2541281 1 119.588 171.812 168.746 0.312509 -6.80722
814710 1 79.2681 209.882 167.381 0.116289 -6.97314
815331 1 145.296 226.189 168.61 0.34874 -6.59879
2545972 1 152.742 298.173 168.67 0.330736 -7.2592
2555805 1 132.661 176.811 171.667 0.151988 -6.2445
2561569 1 143.212 330.473 171.799 0.192866 -6.58165
2586872 1 88.8203 235.438 178.344 0.210106 -7.07734
2646165 1 135.739 286.491 192.649 0.0188569 -6.47729
2643039 1 113.417 197.395 196.07 0.279396 -6.86805
2671719 1 113.055 193.881 199.146 0.0152639 -7.2731
2700651 1 149.06 199.289 205.821 0.661401 -6.43954
973976 1 159.097 232.231 205.916 0.0672745 -7.33069
2733165 1 132.195 296.228 211.775 0.104631 -7.368
2733285 1 132.37 299.464 211.901 0.351568 -6.57119
2815639 1 241.733 190.881 229.29 0.102887 -6.42479
669526 1 134.068 178.439 136.84 0.0468213 -6.6565
2425854 1 162.866 166.724 144.878 0.0961868 -6.31198
714653 1 154.503 229.475 144.716 0.0678881 -7.57273
772853 1 156.59 242.674 154.288 0.460168 -6.64129
2472293 1 154.596 253.166 153.023 0.0782231 -6.13159
758574 1 157.907 249.795 156.326 0.252671 -7.76868
2515493 1 158.021 246.748 159.534 0.232006 -7.69129
801774 1 161.009 246.65 162.304 0.0260798 -7.42005
899810 1 146.802 174.943 188.24 0.0246067 -6.06252
2657078 1 108.667 192.516 194.552 0.17568 -6.70289
2643037 1 108.673 195.598 194.358 0.13924 -6.9179
943718 1 108.335 192.68 197.542 0.0501889 -6.73993
2685285 1 128.939 172.145 201.779 0.184575 -7.22578
988254 1 157.463 227.831 203.873 0.196588 -7.31267
2701732 1 154.432 227.665 207.052 0.125858 -7.7371
1002773 1 154.338 230.644 210.497 0.0704954 -7.80078
1019685 1 130.473 297.891 213.491 0.0382395 -6.91476
2763404 1 130.655 335.071 214.836 0.577846 -6.37466
1021126 1 133.974 338.021 214.956 0.178179 -7.70433
1035647 1 132.161 339.45 216.711 0.597925 -7.39597
2778165 1 133.741 344.253 218.15 0.105764 -6.39186
1050044 1 128.843 339.424 219.736 0.0405318 -6.48498
1059288 1 138.437 202.135 222.84 0.13471 -5.37824
1059409 1 141.949 205.283 223.249 0.0945498 -6.53725
1074070 1 210.567 213.382 224.615 0.130174 -6.45811
2788974 1 162.925 248.665 224.605 0.143411 -6.52874
1061217 1 167.393 252.988 223.279 0.0338884 -7.36455
1075617 1 169.065 254.971 224.691 0.174181 -7.1653
