ITEM: TIMESTEP
91312
ITEM: NUMBER OF ATOMS
59
ITEM: BOX BOUNDS pp pp pp
0 360
0 360
0 360
ITEM: ATOMS id type x y z c_myKE c_myPE
328016 1 165.488 285.397 62.1963 0 -6.25425
2201332 1 152.755 321.739 92.1626 0 -6.82783
2244533 1 156.016 321.624 95.4221 0 -6.54801
488459 1 168.687 339.646 97.3665 0 -7.24603
2314012 1 154.648 261.147 114.529 0 -7.37736
2299852 1 152.787 263.008 114.529 0 -7.37811
586132 1 151.562 259.919 117.619 0 -6.27998
2314252 1 154.649 263.008 116.39 0 -7.37796
2313285 1 130.42 237.529 119.629 0 -6.25518
671451 1 152.755 226.006 132.397 0 -6.25391
2402329 1 141.904 308.939 132.34 0 -7.33702
2388049 1 141.841 308.756 135.444 0 -7.4589
2402330 1 145.15 309.129 135.396 0 -7.4198
2429330 1 148.393 259.926 146.419 0 -7.04091
716091 1 149.663 264.352 145.306 0 -6.9146
2470012 1 149.393 191.091 152.86 0 -6.93387
2472896 1 165.515 267.474 152.779 0 -6.25437
2484169 1 145.001 186.549 154.61 0 -7.5709
2484411 1 148.191 186.69 154.623 0 -7.79516
2484290 1 148.033 189.683 154.781 0 -7.85579
2512851 1 151.396 183.102 157.763 0 -7.16171
2499526 1 133.605 211.999 159.173 0 -6.25727
2503018 1 173.814 302.595 159.163 0 -6.82205
789658 1 170.566 305.855 159.02 0 -6.55888
2546442 1 122.905 309.043 170.565 0 -6.55156
2560722 1 122.781 305.785 173.82 0 -6.82583
2575260 1 180.193 308.976 175.106 0 -6.82552
2575379 1 176.942 312.228 174.98 0 -6.55544
459040 1 112.86 325.277 87.3509 0 -6.25593
473567 1 137.132 328.465 89.3006 0 -6.25737
488458 1 172.111 336.21 96.9721 0 -7.91319
502377 1 173.544 331.685 98.8297 0 -7.48202
517137 1 168.977 336.142 100.15 0 -7.60634
517139 1 172.123 336.168 100.161 0 -8.14913
2230499 1 175.325 336.261 100.283 0 -7.57432
2230858 1 172.145 339.343 100.164 0 -7.52288
531418 1 168.868 332.884 103.463 0 -6.64086
2216098 1 173.554 334.751 102.021 0 -7.73671
568254 1 159.457 165.756 112.899 0 -6.82036
582534 1 159.582 162.499 116.154 0 -6.54639
670724 1 125.639 208.48 135.226 0 -6.82295
670845 1 128.9 211.734 135.111 0 -6.54369
660049 1 140.313 307.236 133.821 0 -7.22381
2388051 1 143.395 310.658 137.168 0 -7.12335
2417453 1 156.464 326.83 138.724 0 -7.06828
703852 1 153.224 325.406 141.216 0 -6.7957
2443971 1 147.882 262.804 143.444 0 -7.04461
716074 1 93.7366 267.845 146.723 0 -6.25504
742131 1 146.436 191.168 153.082 0 -7.47308
761203 1 122.356 320.15 154.359 0 -6.91081
2475042 1 119.258 323.248 154.358 0 -6.9121
784971 1 146.691 185.132 156.255 0 -8.07158
2469890 1 149.822 184.989 156.156 0 -7.59008
775843 1 122.448 323.34 157.692 0 -6.60106
783654 1 157.525 149.816 160.739 0 -6.25273
799490 1 149.727 184.716 159.54 0 -7.58621
817738 1 170.373 290.087 167.006 0 -6.55841
817857 1 167.124 293.347 167.149 0 -6.82014
987409 1 141.584 207.232 207.355 0 -6.25405
