ITEM: TIMESTEP
104000
ITEM: NUMBER OF ATOMS
108
ITEM: BOX BOUNDS pp pp pp
0 360
0 360
0 360
ITEM: ATOMS id type x y z c_myKE c_myPE
2527611 1 145.054 200.447 160.748 0.108663 -7.16856
2542484 1 129.327 205.71 170.254 0.118233 -6.76533
843165 1 132.575 199.009 173.579 0.0650859 -7.35219
872205 1 132.478 205.427 173.541 0.374027 -7.34756
857567 1 129.494 199.09 176.715 0.326163 -7.742
843525 1 129.862 204.522 177.38 0.359065 -7.86484
872208 1 132.12 202.744 177.155 0.0253316 -8.26005
857805 1 125.651 205.654 176.822 0.249716 -6.63245
2585683 1 124.344 203.893 181.109 0.0622322 -7.90997
2557006 1 129.702 202.646 179.781 0.0547169 -8.11018
2600203 1 124.273 206.729 181.353 0.40033 -7.25797
2614243 1 126.199 198.975 183.042 0.145655 -6.86125
2614599 1 113.239 208.721 186.827 0.432601 -6.69815
2655171 1 151.475 138.451 196.121 0.119937 -6.4197
2676269 1 79.5594 317.116 197.454 0.131235 -5.93248
2672589 1 207.102 218.075 200.434 0.466721 -6.77832
2700059 1 175.225 183.636 202.628 0.26 -6.60379
2700177 1 172.202 186.528 203.629 0.358648 -7.09635
2700178 1 174.133 186.809 205.449 0.081358 -7.59096
2774666 1 71.7417 250.276 221.406 0.275191 -7.63541
2802391 1 87.9331 224.822 226.055 0.262503 -6.5069
2788826 1 75.0062 244.099 224.628 0.482368 -8.02916
2788708 1 73.1687 248.406 226.338 0.12957 -8.91247
1104029 1 76.0478 248.405 226.356 0.00531394 -7.86453
1089744 1 66.7555 251.713 226.109 0.0348971 -7.96572
1089986 1 71.5999 250.159 224.77 0.241765 -8.29289
1089509 1 79.5903 239.01 229.26 0.262752 -7.42117
1089504 1 65.4152 240.689 227.851 0.540243 -8.44009
2817506 1 68.7207 240.635 227.747 0.317677 -8.24143
1089506 1 73.1774 242.188 229.379 0.190973 -8.78041
1089268 1 76.2365 242.128 229.402 0.0498513 -8.39586
1089628 1 77.9118 240.688 227.933 0.413664 -7.94623
2803224 1 67.0097 245.256 229.263 0.0589581 -8.59412
2803225 1 69.891 245.3 229.275 0.0884427 -8.52087
2817742 1 60.4115 248.388 228.966 0.487895 -7.27813
2805522 1 123.298 307.742 227.729 0.223962 -6.75269
1103667 1 73.048 239.074 232.404 0.261396 -7.95578
1118189 1 76.4009 238.851 232.442 0.118077 -8.02021
1118185 1 68.4909 240.628 231.154 0.0447285 -8.32245
2820042 1 123.012 310.754 231.106 0.0526994 -6.20986
2833088 1 11.8138 270.877 234.322 0.124557 -6.90225
3005769 1 15.3838 272.797 270.652 0.0870523 -6.80458
3003737 1 42.9925 218.62 272.998 0.117051 -7.49658
3018138 1 46.0009 218.844 275.815 0.248685 -7.60019
3032417 1 42.9531 215.213 278.718 0.424431 -7.64248
3061450 1 20.5414 221.763 285.514 0.0412967 -6.67819
3177269 1 82.9907 235.582 312.31 0.211775 -6.72928
626328 1 137.126 176.392 127.553 0.0370732 -6.2489
743565 1 128.892 230.41 150.997 0.189293 -6.68495
771047 1 140.478 201.823 156.104 0.132806 -6.17889
769137 1 169.427 144.927 159.456 0.304161 -6.39396
2499408 1 140.234 205.428 159.115 0.0488198 -7.18333
2571284 1 127.682 200.827 172.179 0.036773 -7.42306
840773 1 156.327 136.682 175.423 0.603551 -6.38292
871390 1 210.387 185.14 179.801 0.106369 -6.04648
2585804 1 124.465 203.823 178.518 0.0460017 -7.44484
2585685 1 127.661 203.697 178.601 0.0469008 -7.80645
886364 1 127.575 201.098 181.488 0.120456 -6.94653
886603 1 122.499 205.11 183.053 0.388074 -6.42889
886719 1 111.738 210.127 185.116 0.0156284 -6.66314
899806 1 134.093 173.189 187.35 0.334663 -5.3284
944432 1 87.7564 211.837 195.669 0.0886615 -6.60449
988952 1 89.5726 246.366 205.485 0.0235899 -6.17068
986332 1 151.038 178.686 207.51 0.0855402 -7.53424
987769 1 141.894 216.959 207.796 0.108248 -6.89786
1004080 1 113.3 264.93 210.474 0.317874 -6.76044
1043086 1 131.98 153.854 220.092 0.159284 -7.35015
1057976 1 163.968 169.116 223.213 0.0743923 -6.91098
1058342 1 183.367 178.504 223.418 0.0733893 -6.63396
1075464 1 62.2121 247.002 224.386 0.373464 -8.22704
1075344 1 65.1965 247.017 224.513 0.0169136 -8.55644
2803357 1 105.883 246.906 224.524 0.150294 -6.60791
2803345 1 68.3255 250.25 224.612 0.152235 -8.73989
1061070 1 73.0796 248.652 223.099 0.302565 -7.67187
2803586 1 71.5877 253.169 224.701 0.0513203 -7.96608
1072862 1 183.305 181.534 226.621 0.0875027 -7.01303
2802628 1 73.9307 232.44 226.128 1.26239 -7.69579
1089626 1 71.6271 243.84 227.708 0.0536464 -8.90849
2803226 1 74.8411 243.721 227.785 0.111221 -8.65934
2803228 1 76.3483 242.347 226.109 0.0777899 -8.11184
2817625 1 62.1497 246.876 227.663 0.2907 -8.10199
2817623 1 65.2658 246.733 227.754 0.352951 -8.59135
2817746 1 68.406 247.049 227.633 0.131522 -8.60925
2802986 1 70.0519 245.447 226.112 0.316532 -8.64949
2817747 1 74.7049 246.791 228.028 0.533247 -8.54441
2788944 1 60.5533 248.788 226.321 0.038148 -7.89197
1104266 1 71.5242 250.054 227.829 0.123984 -8.50036
1089877 1 105.554 250.061 227.516 0.213752 -6.41952
1075709 1 71.6478 256.229 228.023 0.322176 -7.92085
1103905 1 71.569 240.474 230.978 0.0542478 -8.02075
1118190 1 74.7324 240.55 230.856 0.16941 -8.58376
2846429 1 77.8692 240.683 230.968 0.0931763 -8.37242
2817622 1 61.9894 243.641 231.002 0.0849672 -8.36439
1103784 1 63.7848 242.101 229.443 0.0910627 -8.45126
1089624 1 63.8203 245.369 229.575 0.0502597 -7.82203
1089625 1 63.8116 242.231 232.616 0.532793 -7.68594
1132467 1 68.2317 243.526 234.023 0.0250042 -8.17411
1290137 1 41.1085 216.968 274.166 0.0765966 -7.69617
1304536 1 38.3335 216.822 277.609 0.234233 -7.44268
1304537 1 41.3455 217.003 277.425 0.714728 -8.33199
1304538 1 44.5656 216.794 277.154 0.065706 -8.23475
1304657 1 40.9988 220.118 277.334 0.0592924 -8.01728
1318937 1 41.2848 216.87 280.553 0.587713 -7.65783
1333570 1 19.1039 223.312 283.734 0.31086 -6.56269
1406548 1 76.2109 250.075 297.818 0.0150247 -6.7895
1421068 1 73.2969 249.939 301.199 0.129126 -6.65429
1434849 1 13.8721 236.151 306.278 0.279921 -6.32369
1463791 1 86.2644 239.196 312.235 0.0732863 -6.77909
