ITEM: TIMESTEP
86687
ITEM: NUMBER OF ATOMS
75
ITEM: BOX BOUNDS pp pp pp
0 360
0 360
0 360
ITEM: ATOMS id type x y z
711520 1 117.75 147.75 147.75
755335 1 162.75 162.75 156.75
854088 1 141.75 111.75 177.75
984891 1 150.75 141.75 204.75
999290 1 147.75 141.75 207.75
999291 1 150.75 141.75 207.75
999411 1 150.75 144.75 207.75
1013691 1 150.75 141.75 210.75
1013812 1 153.75 144.75 210.75
1028453 1 156.75 150.75 213.75
1042614 1 159.75 144.75 216.75
1042731 1 150.75 147.75 216.75
1100826 1 195.75 159.75 228.75
1129264 1 189.75 150.75 234.75
1129384 1 189.75 153.75 234.75
1143664 1 189.75 150.75 237.75
1143665 1 192.75 150.75 237.75
1186141 1 180.75 132.75 246.75
1214821 1 180.75 129.75 252.75
1214942 1 183.75 132.75 252.75
1228485 1 132.75 111.75 255.75
1229222 1 183.75 129.75 255.75
1243480 1 117.75 126.75 258.75
1243621 1 180.75 129.75 258.75
1257548 1 201.75 117.75 261.75
1260311 1 210.75 186.75 261.75
1260548 1 201.75 192.75 261.75
1260554 1 219.75 192.75 261.75
1274834 1 219.75 189.75 264.75
1314654 1 159.75 105.75 273.75
1329053 1 156.75 105.75 276.75
1358939 1 174.75 132.75 282.75
1359060 1 177.75 135.75 282.75
1401900 1 177.75 126.75 291.75
1404296 1 165.75 186.75 291.75
2467739 1 176.25 134.25 155.25
2555927 1 140.25 179.25 173.25
2625523 1 128.25 119.25 188.25
2670048 1 143.25 152.25 197.25
2684328 1 143.25 149.25 200.25
2712771 1 152.25 140.25 206.25
2727413 1 158.25 146.25 209.25
2741691 1 152.25 143.25 212.25
2741933 1 158.25 149.25 212.25
2756211 1 152.25 146.25 215.25
2756213 1 158.25 146.25 215.25
2756332 1 155.25 149.25 215.25
2770491 1 152.25 143.25 218.25
2770612 1 155.25 146.25 218.25
2857143 1 188.25 149.25 236.25
2857264 1 191.25 152.25 236.25
2914021 1 182.25 131.25 248.25
2914142 1 185.25 134.25 248.25
2928420 1 179.25 131.25 251.25
2928421 1 182.25 131.25 251.25
2928541 1 182.25 134.25 251.25
2941964 1 131.25 110.25 254.25
2942821 1 182.25 131.25 254.25
2942822 1 185.25 131.25 254.25
2956628 1 203.25 116.25 257.25
2970908 1 203.25 113.25 260.25
2971269 1 206.25 122.25 260.25
2974147 1 200.25 194.25 260.25
3042654 1 161.25 107.25 275.25
3074350 1 209.25 179.25 281.25
3085609 1 146.25 101.25 284.25
3086940 1 179.25 134.25 284.25
3101220 1 179.25 131.25 287.25
3104348 1 203.25 209.25 287.25
3129659 1 176.25 122.25 293.25
3129780 1 179.25 125.25 293.25
3132057 1 170.25 182.25 293.25
3132176 1 167.25 185.25 293.25
3202165 1 254.25 134.25 308.25
3302814 1 161.25 131.25 329.25
