ITEM: TIMESTEP
108826
ITEM: NUMBER OF ATOMS
124
ITEM: BOX BOUNDS pp pp pp
0 360
0 360
0 360
ITEM: ATOMS id type x y z c_myKE c_myPE
2310054 1 161.025 151.488 117.595 0 -6.25498
825782 1 184.689 123.062 171.942 0 -6.8787
811385 1 187.704 122.757 171.729 0 -7.04022
2540456 1 167.185 151.302 171.835 0 -7.18354
2554975 1 164.434 154.774 171.771 0 -7.26724
841269 1 200.481 138.736 173.828 0 -7.13235
2554973 1 164.323 151.594 175.11 0 -6.95799
2597826 1 197.378 138.599 176.789 0 -7.04402
871139 1 176.97 181.47 178.196 0 -6.25738
2597948 1 200.439 145.097 180.141 0 -7.00316
2584244 1 127.039 165.484 180.17 0 -6.83019
2628426 1 199.294 194.216 187.765 0 -6.25661
2858723 1 251.524 189.793 240.726 0 -6.35429
2887883 1 253.364 197.286 245.335 0 -6.57491
1158075 1 218.565 145.065 251.556 0 -7.48359
1186755 1 221.508 145.124 254.867 0 -8.50072
1201273 1 221.473 148.185 254.994 0 -8.7763
2929394 1 219.735 152.731 253.535 0 -8.09161
2929034 1 221.449 145.118 258.03 0 -8.46044
1215554 1 221.496 148.223 258.091 0 -8.75661
2943554 1 224.7 148.128 258.162 0 -8.04119
1215914 1 221.498 151.345 258.13 0 -8.74286
2958075 1 221.562 154.575 258.14 0 -8.16236
2930234 1 222.941 175.028 256.575 0 -7.0555
1229953 1 221.445 148.284 261.183 0 -8.51851
2943796 1 223.067 152.824 259.811 0 -8.41585
2943915 1 224.839 151.362 261.286 0 -7.99773
2944172 1 282.26 162.279 259.848 0 -6.25688
2972715 1 226.867 155.283 266.896 0 -8.13746
2972956 1 229.833 158.332 266.698 0 -8.40626
3001636 1 227.961 162.489 267.592 0 -8.18982
2973196 1 232.854 161.446 266.577 0 -8.04334
2987372 1 280.317 162.28 267.516 0 -6.25661
1288038 1 229.867 155.187 269.928 0 -8.5831
3001515 1 230.013 158.385 269.947 0 -8.65915
2987237 1 230.082 161.585 269.94 0 -8.33374
1288037 1 229.88 155.139 273.084 0 -8.43639
1316837 1 230.094 158.427 273.153 0 -8.49104
3016275 1 230.274 161.662 273.131 0 -8.24173
3030076 1 227.954 156.121 277.267 0 -7.55175
3001637 1 230.152 158.476 276.493 0 -8.01857
3030555 1 232.246 160.821 277.142 0 -7.35149
3089468 1 205.475 199.179 290.022 0 -7.11504
3103748 1 205.786 196.047 293.154 0 -6.64034
3128114 1 222.858 78.1129 301.357 0 -6.2558
3147451 1 279.034 208.9 304.543 0 -6.25527
3162678 1 235.606 231.362 307.751 0 -6.82751
1503319 1 240.661 141.826 323.824 0 -6.5554
3231440 1 243.917 145.101 323.702 0 -6.8335
3247764 1 256.703 194.2 324.923 0 -6.25646
3259880 1 240.829 130.528 331.35 0 -7.38064
1546398 1 243.857 133.524 331.302 0 -7.5484
1574961 1 243.821 130.564 334.72 0 -8.46402
3288681 1 247.024 133.75 334.61 0 -7.88687
1574710 1 212.178 122.917 336.822 0 -6.77378
3274042 1 250.326 133.549 337.81 0 -7.56978
3302831 1 215.414 124.341 339.329 0 -7.06515
3317110 1 212.171 126.854 340.747 0 -6.78767
3331523 1 246.986 130.51 340.776 0 -8.40601
1560562 1 250.191 130.554 340.833 0 -8.45465
3331283 1 250.126 127.319 344.202 0 -7.21753
1589485 1 250.228 130.336 343.961 0 -7.9284
3387696 1 293.048 88.9238 356.825 0 -6.25508
3389722 1 248.422 140.077 358.7 0 -6.71286
3389843 1 251.654 143.292 358.919 0 -6.57756
3419478 1 234.399 167.444 361.964 0 -6.25641
754727 1 135.003 146.848 156.593 0 -6.77979
769246 1 131.764 148.268 159.104 0 -7.06285
2497126 1 133.584 150.089 159.104 0 -7.06758
2539382 1 186.34 124.534 173.472 0 -7.07542
826977 1 169.123 152.868 173.58 0 -6.71924
2583186 1 201.923 140.451 175.364 0 -7.45219
855784 1 191.22 153.042 176.498 0 -6.53242
856026 1 194.495 156.28 176.602 0 -6.82637
884105 1 199.128 140.178 178.735 0 -7.43397
856364 1 125.458 167.255 178.399 0 -6.54312
882784 1 191.347 105.216 182.998 0 -6.26554
2611631 1 213.666 127.553 182.971 0 -6.26004
2610898 1 170.252 108.509 186.196 0 -6.91094
911699 1 173.587 108.402 189.379 0 -6.60293
911818 1 170.253 111.603 189.296 0 -6.91249
942438 1 237.215 160.717 194.465 0 -6.25557
2711825 1 195.753 114.82 208.513 0 -6.26244
1160004 1 255.137 198.882 243.561 0 -6.83841
1201154 1 219.944 143.481 253.306 0 -7.66561
1186875 1 219.901 146.735 253.277 0 -8.52888
1215915 1 219.87 149.775 253.4 0 -8.2937
1201153 1 223.218 143.595 256.51 0 -7.57763
2929152 1 219.909 149.802 256.507 0 -8.76526
2929513 1 219.882 152.929 256.498 0 -8.27386
1202354 1 221.09 176.806 255.027 0 -6.95192
1216754 1 221.447 176.785 258.319 0 -6.80653
2958195 1 223.109 152.921 262.697 0 -8.17081
1259236 1 228.307 156.676 265.189 0 -7.74335
1273875 1 229.397 164.071 265.902 0 -7.71832
1259356 1 228.264 153.633 268.406 0 -8.08947
1302196 1 228.48 156.837 268.398 0 -8.61909
3001514 1 228.637 160.042 268.403 0 -8.37835
1273517 1 229.498 151.31 272.512 0 -7.48657
3015676 1 225.851 153.788 271.803 0 -8.09491
1273515 1 228.593 156.915 271.619 0 -8.52105
1288277 1 231.51 159.945 271.496 0 -8.57951
3030676 1 231.507 163.23 271.418 0 -7.6769
3029954 1 226.404 151.256 275.775 0 -6.77225
3015917 1 231.295 156.666 274.737 0 -8.46434
1302558 1 231.558 159.913 274.73 0 -8.05953
1331833 1 221.064 173.58 281.943 0 -6.37406
1361588 1 203.974 200.962 288.232 0 -6.91005
1401937 1 294.651 122.417 297.8 0 -6.25566
1431207 1 262.73 137.112 304.186 0 -6.25565
1434799 1 237.377 232.944 305.981 0 -6.54298
1460944 1 189.336 160.722 310.613 0 -6.82401
1475464 1 189.227 163.981 313.867 0 -6.54004
3274279 1 242.307 128.811 333.072 0 -8.07774
1560560 1 242.35 132.072 333.053 0 -8.19439
1560680 1 245.483 132.116 333.043 0 -8.51859
3303201 1 245.409 128.854 336.243 0 -8.17115
1546160 1 245.47 132.131 336.155 0 -8.68028
3259760 1 248.584 132.114 336.194 0 -8.52217
1574840 1 245.493 132.17 339.219 0 -8.45012
1560322 1 248.553 132.139 339.325 0 -8.39098
1560563 1 248.55 128.908 342.333 0 -8.07846
1575202 1 251.958 131.91 342.557 0 -7.36509
1659101 1 310.593 66.9442 357.18 0 -6.2548
