ITEM: TIMESTEP
90000
ITEM: NUMBER OF ATOMS
79
ITEM: BOX BOUNDS pp pp pp
0 360
0 360
0 360
ITEM: ATOMS id type x y z c_myKE c_myPE
2410853 1 158.365 151.271 140.142 0.128308 -6.57487
2410973 1 157.698 154.76 140.23 0.131329 -6.66621
2411480 1 244.123 165.416 142.086 0.00899464 -7.10224
2440160 1 245.01 160.936 146.522 0.0285731 -6.71672
784871 1 213.304 183.388 162.301 0.107059 -6.4041
2499673 1 219.503 215.493 161.014 0.204388 -6.82841
2528341 1 183.218 208.833 165.722 0.635191 -6.51755
2514071 1 213.345 215.34 163.9 0.527042 -7.06781
2514074 1 222.745 215.011 164.31 0.0937467 -6.88087
814394 1 219.574 199.205 168.567 0.0674465 -8.07243
2542274 1 221.47 199.28 170.594 0.200124 -7.60943
2572045 1 259.553 222.726 175.125 0.173527 -6.64722
2581726 1 135.527 100.68 178.183 0.258693 -6.77901
2586565 1 259.934 226.119 178.492 0.181475 -5.87515
2596603 1 123.965 111.297 183.396 0.103314 -6.61703
2626868 1 203.705 151.382 187.83 0.0106081 -6.7774
943492 1 152.982 187.239 199.023 0.0477044 -6.91916
2699939 1 177.098 178.444 204.025 0.0529002 -6.35093
2757303 1 187.929 173.814 216.358 0.0324869 -7.31905
2757305 1 193.64 173.485 216.879 0.00124109 -6.89506
2799773 1 155.901 154.421 225.854 0.148542 -6.51141
2799797 1 232.343 154.884 227.742 0.357437 -6.25127
2802924 1 254.827 237.298 228.004 0.115065 -6.57481
2872632 1 216.684 175.187 241.756 0.28891 -6.34353
2878415 1 289.737 329.831 243.686 0.116088 -5.94558
2888009 1 270.777 200.668 246.925 0.0479317 -6.77864
1161082 1 251.005 227.86 248.415 0.165531 -7.06434
1263571 1 277.119 278.602 264.196 0.122386 -7.86156
2991451 1 277.091 276.523 266.058 0.0182019 -7.55847
1263811 1 273.295 280.16 265.967 0.00833615 -7.58718
2990476 1 231.301 247.24 269.344 0.0197049 -7.25597
3048315 1 225.791 251.483 280.407 0.137263 -6.23176
3035852 1 280.164 304.319 278.708 0.0863133 -6.96599
582299 1 173.458 156.315 115.832 0.070391 -6.51175
612080 1 240.294 179.982 122.412 0.525695 -6.72858
626481 1 243.566 179.842 125.659 0.197876 -6.22394
626714 1 223.335 186.312 128.832 0.246113 -5.81625
669298 1 172.297 170.092 137.001 0.179651 -6.14074
697374 1 159.721 152.988 141.623 0.0261573 -7.24727
739863 1 188.204 134.065 153.687 0.378863 -6.75006
756062 1 183.189 182.104 154.349 0.00988865 -7.16106
770463 1 186.319 181.927 157.353 0.325321 -6.52293
2527392 1 216.79 191.134 165.716 0.485909 -6.13652
814393 1 221.628 195.961 166.786 0.105593 -7.13718
800472 1 214.862 213.939 165.684 0.200197 -7.72127
815107 1 199.251 216.812 167.124 0.232897 -6.19359
800592 1 214.884 217.019 165.463 0.0919219 -7.88435
800713 1 217.995 219.871 165.748 0.30684 -7.09805
828433 1 221.527 192.198 170.593 0.075201 -7.67483
814152 1 218.037 194.215 168.851 0.00979676 -7.79167
2556434 1 221.548 194.04 172.469 0.448695 -7.87641
943612 1 152.845 189.302 197.444 0.0407826 -6.92624
971939 1 175.387 176.654 202.167 0.0606317 -7.0515
944111 1 210.469 200.67 201.145 0.134866 -6.60355
972790 1 210.347 201.132 203.759 0.216704 -7.03878
2686510 1 211.54 203.983 203.653 0.167021 -6.88006
1015024 1 189.584 175.27 211.829 0.157604 -7.12011
1033292 1 278.806 272.661 214.808 0.113989 -6.349
2742783 1 189.798 170.002 216.543 0.0223356 -7.13698
2757184 1 191.613 171.828 216.859 0.16251 -7.72911
1045730 1 147.082 226.392 218.085 0.1302 -6.02329
1033172 1 278.943 274.683 216.412 0.248471 -6.99684
1088467 1 200.806 211.765 227.868 0.0812545 -5.9136
1118724 1 253.082 251.776 233.936 0.115709 -7.12703
1129615 1 162.606 159.683 237.028 0.0522617 -6.24589
1130840 1 240.173 191.178 237.089 0.203732 -6.59985
1133124 1 253.176 248.462 237.293 0.212551 -7.24832
1147404 1 249.856 251.656 237.139 0.260235 -7.11465
2875404 1 249.846 248.322 240.403 0.177732 -7.2606
1190603 1 249.645 245.082 243.817 0.036047 -6.68442
1174410 1 272.291 198.82 248.606 0.419068 -7.31314
1175365 1 252.753 229.252 250.313 0.37169 -5.80796
1235131 1 278.67 281.776 262.102 0.241795 -7.77167
1249411 1 280.626 280.025 265.636 0.0955844 -7.45407
2963011 1 278.639 284.007 264.016 0.0169343 -7.98221
1291876 1 230.063 261.329 274.119 0.129728 -7.0125
1304602 1 248.73 214.746 277.638 0.321519 -6.66655
1322252 1 278.567 302.852 280.578 0.0565143 -7.15916
1377910 1 208.364 251.9 291.532 0.0101698 -6.76398
