ITEM: TIMESTEP
104571
ITEM: NUMBER OF ATOMS
193
ITEM: BOX BOUNDS pp pp pp
0 360
0 360
0 360
ITEM: ATOMS id type x y z
666919 1 234.75 111.75 138.75
681079 1 234.75 105.75 141.75
681436 1 225.75 114.75 141.75
695596 1 225.75 108.75 144.75
728334 1 159.75 207.75 150.75
731960 1 237.75 297.75 150.75
739379 1 174.75 123.75 153.75
746116 1 225.75 291.75 153.75
746357 1 228.75 297.75 153.75
754014 1 159.75 129.75 156.75
754131 1 150.75 132.75 156.75
754853 1 156.75 150.75 156.75
768891 1 150.75 141.75 159.75
769016 1 165.75 144.75 159.75
769136 1 165.75 147.75 159.75
769254 1 159.75 150.75 159.75
783052 1 153.75 135.75 162.75
784502 1 183.75 171.75 162.75
788596 1 225.75 273.75 162.75
788714 1 219.75 276.75 162.75
812212 1 153.75 144.75 168.75
812814 1 159.75 159.75 168.75
812815 1 162.75 159.75 168.75
828074 1 219.75 180.75 171.75
856635 1 222.75 174.75 177.75
885796 1 225.75 183.75 183.75
885797 1 228.75 183.75 183.75
900786 1 195.75 198.75 186.75
901617 1 168.75 219.75 186.75
914954 1 219.75 192.75 189.75
915313 1 216.75 201.75 189.75
915557 1 228.75 207.75 189.75
915773 1 156.75 213.75 189.75
928875 1 222.75 180.75 192.75
929114 1 219.75 186.75 192.75
929594 1 219.75 198.75 192.75
929716 1 225.75 201.75 192.75
929717 1 228.75 201.75 192.75
929836 1 225.75 204.75 192.75
943994 1 219.75 198.75 195.75
944114 1 219.75 201.75 195.75
944125 1 252.75 201.75 195.75
944239 1 234.75 204.75 195.75
945428 1 201.75 234.75 195.75
958278 1 231.75 195.75 198.75
958279 1 234.75 195.75 198.75
958394 1 219.75 198.75 198.75
958522 1 243.75 201.75 198.75
958642 1 243.75 204.75 198.75
959114 1 219.75 216.75 198.75
960315 1 222.75 246.75 198.75
972679 1 234.75 195.75 201.75
972799 1 234.75 198.75 201.75
973748 1 201.75 222.75 201.75
973752 1 213.75 222.75 201.75
974594 1 219.75 243.75 201.75
974717 1 228.75 246.75 201.75
987678 1 231.75 210.75 204.75
987913 1 216.75 216.75 204.75
988394 1 219.75 228.75 204.75
989239 1 234.75 249.75 204.75
989714 1 219.75 261.75 204.75
1001361 1 240.75 192.75 207.75
1001716 1 225.75 201.75 207.75
1002546 1 195.75 222.75 207.75
1002552 1 213.75 222.75 207.75
1002794 1 219.75 228.75 207.75
1003515 1 222.75 246.75 207.75
1016236 1 225.75 204.75 210.75
1016717 1 228.75 216.75 210.75
1017197 1 228.75 228.75 210.75
1017216 1 285.75 228.75 210.75
1017313 1 216.75 231.75 210.75
1017314 1 219.75 231.75 210.75
1017795 1 222.75 243.75 210.75
1017912 1 213.75 246.75 210.75
1018036 1 225.75 249.75 210.75
1044925 1 252.75 201.75 216.75
1044926 1 255.75 201.75 216.75
1045521 1 240.75 216.75 216.75
1046596 1 225.75 243.75 216.75
1060056 1 285.75 219.75 219.75
1060057 1 288.75 219.75 219.75
1061353 1 216.75 252.75 219.75
1075030 1 207.75 234.75 222.75
1089094 1 279.75 225.75 225.75
1090155 1 222.75 252.75 225.75
1090159 1 234.75 252.75 225.75
1090516 1 225.75 261.75 225.75
1104559 1 234.75 252.75 228.75
1105518 1 231.75 276.75 228.75
1162515 1 222.75 261.75 240.75
1176558 1 231.75 252.75 243.75
1176795 1 222.75 258.75 243.75
1176915 1 222.75 261.75 243.75
1189510 1 207.75 216.75 246.75
1491790 1 207.75 213.75 309.75
1592589 1 204.75 213.75 330.75
2401994 1 221.25 290.25 140.25
2416633 1 218.25 296.25 143.25
2424891 1 152.25 143.25 146.25
2431040 1 239.25 296.25 146.25
2445435 1 224.25 296.25 149.25
2473036 1 227.25 266.25 155.25
2481078 1 233.25 107.25 158.25
2496411 1 152.25 131.25 161.25
2497250 1 149.25 152.25 161.25
2497731 1 152.25 164.25 161.25
2503275 1 224.25 302.25 161.25
2510812 1 155.25 131.25 164.25
2512504 1 191.25 173.25 164.25
2526053 1 158.25 152.25 167.25
2539379 1 176.25 125.25 170.25
2554492 1 155.25 143.25 173.25
2584394 1 221.25 170.25 179.25
2598671 1 212.25 167.25 182.25
2599637 1 230.25 191.25 182.25
2599876 1 227.25 197.25 182.25
2601674 1 221.25 242.25 182.25
2612831 1 212.25 161.25 185.25
2627478 1 233.25 167.25 188.25
2628536 1 167.25 194.25 188.25
2628795 1 224.25 200.25 188.25
2629397 1 230.25 215.25 188.25
2629738 1 173.25 224.25 188.25
2642471 1 212.25 182.25 191.25
2643194 1 221.25 200.25 191.25
2643314 1 221.25 203.25 191.25
2643436 1 227.25 206.25 191.25
2643437 1 230.25 206.25 191.25
2644268 1 203.25 227.25 191.25
2656278 1 233.25 167.25 194.25
2657714 1 221.25 203.25 194.25
2658178 1 173.25 215.25 194.25
2658435 1 224.25 221.25 194.25
2671994 1 221.25 200.25 197.25
2671999 1 236.25 200.25 197.25
2672594 1 221.25 215.25 197.25
2672714 1 221.25 218.25 197.25
2673552 1 215.25 239.25 197.25
2685920 1 239.25 188.25 200.25
2686153 1 218.25 194.25 200.25
2686511 1 212.25 203.25 200.25
2686994 1 221.25 215.25 200.25
2686997 1 230.25 215.25 200.25
2687336 1 167.25 224.25 200.25
2687337 1 170.25 224.25 200.25
2687594 1 221.25 230.25 200.25
2700797 1 230.25 200.25 203.25
2701514 1 221.25 218.25 203.25
2701631 1 212.25 221.25 203.25
2701634 1 221.25 221.25 203.25
2702595 1 224.25 245.25 203.25
2715314 1 221.25 203.25 206.25
2715796 1 227.25 215.25 206.25
2715914 1 221.25 218.25 206.25
2716153 1 218.25 224.25 206.25
2716157 1 230.25 224.25 206.25
2716393 1 218.25 230.25 206.25
2716511 1 212.25 233.25 206.25
2717117 1 230.25 248.25 206.25
2717352 1 215.25 254.25 206.25
2729596 1 227.25 200.25 209.25
2730911 1 212.25 233.25 209.25
2730915 1 224.25 233.25 209.25
2731394 1 221.25 245.25 209.25
2744603 1 248.25 215.25 212.25
2745073 1 218.25 227.25 212.25
2745436 1 227.25 236.25 212.25
2745552 1 215.25 239.25 212.25
2745916 1 227.25 248.25 212.25
2746395 1 224.25 260.25 212.25
2759713 1 218.25 233.25 215.25
2773771 1 272.25 224.25 218.25
2774592 1 215.25 245.25 218.25
2787435 1 224.25 206.25 221.25
2804236 1 227.25 266.25 224.25
2818397 1 230.25 260.25 227.25
2818399 1 236.25 260.25 227.25
2818636 1 227.25 266.25 227.25
2818875 1 224.25 272.25 227.25
2833152 1 215.25 269.25 230.25
2847195 1 224.25 260.25 233.25
2874310 1 209.25 218.25 239.25
2917390 1 209.25 215.25 248.25
3003791 1 212.25 215.25 266.25
3018191 1 212.25 215.25 269.25
3046987 1 200.25 215.25 275.25
3118989 1 206.25 215.25 290.25
3162191 1 212.25 215.25 299.25
3190989 1 206.25 215.25 305.25
3191111 1 212.25 218.25 305.25
3306188 1 203.25 215.25 329.25
