ITEM: TIMESTEP
87464
ITEM: NUMBER OF ATOMS
86
ITEM: BOX BOUNDS pp pp pp
0 360
0 360
0 360
ITEM: ATOMS id type x y z
784721 1 120.75 177.75 162.75
799001 1 120.75 174.75 165.75
799120 1 117.75 177.75 165.75
869934 1 159.75 147.75 180.75
870051 1 150.75 150.75 180.75
884214 1 159.75 144.75 183.75
884331 1 150.75 147.75 183.75
884335 1 162.75 147.75 183.75
884450 1 147.75 150.75 183.75
884451 1 150.75 150.75 183.75
884454 1 159.75 150.75 183.75
884712 1 213.75 156.75 183.75
884926 1 135.75 162.75 183.75
898732 1 153.75 147.75 186.75
898974 1 159.75 153.75 186.75
913133 1 156.75 147.75 189.75
927298 1 171.75 141.75 192.75
927417 1 168.75 144.75 192.75
927536 1 165.75 147.75 192.75
941700 1 177.75 141.75 195.75
941817 1 168.75 144.75 195.75
941818 1 171.75 144.75 195.75
955980 1 177.75 138.75 198.75
956099 1 174.75 141.75 198.75
956217 1 168.75 144.75 198.75
956218 1 171.75 144.75 198.75
956219 1 174.75 144.75 198.75
970619 1 174.75 144.75 201.75
970738 1 171.75 147.75 201.75
985019 1 174.75 144.75 204.75
985020 1 177.75 144.75 204.75
1011675 1 222.75 90.75 210.75
1013585 1 192.75 138.75 210.75
1026076 1 225.75 90.75 213.75
1028321 1 120.75 147.75 213.75
1043954 1 219.75 177.75 216.75
1087148 1 201.75 177.75 225.75
1101428 1 201.75 174.75 228.75
1129244 1 129.75 150.75 234.75
1172090 1 147.75 141.75 243.75
2337531 1 152.25 119.25 128.25
2495100 1 179.25 98.25 161.25
2523303 1 188.25 83.25 167.25
2538424 1 191.25 101.25 170.25
2552823 1 188.25 101.25 173.25
2553183 1 188.25 110.25 173.25
2567582 1 185.25 110.25 176.25
2583534 1 161.25 149.25 179.25
2612215 1 164.25 146.25 185.25
2612332 1 155.25 149.25 185.25
2612450 1 149.25 152.25 185.25
2612453 1 158.25 152.25 185.25
2626615 1 164.25 146.25 188.25
2626733 1 158.25 149.25 188.25
2626854 1 161.25 152.25 188.25
2640897 1 170.25 143.25 191.25
2641015 1 164.25 146.25 191.25
2641016 1 167.25 146.25 191.25
2655297 1 170.25 143.25 194.25
2655298 1 173.25 143.25 194.25
2655416 1 167.25 146.25 194.25
2655536 1 167.25 149.25 194.25
2669698 1 173.25 143.25 197.25
2669816 1 167.25 146.25 197.25
2683979 1 176.25 140.25 200.25
2684099 1 176.25 143.25 200.25
2684100 1 179.25 143.25 200.25
2684217 1 170.25 146.25 200.25
2684218 1 173.25 146.25 200.25
2685410 1 149.25 176.25 200.25
2698380 1 179.25 140.25 203.25
2698499 1 176.25 143.25 203.25
2698618 1 173.25 146.25 203.25
2711954 1 221.25 119.25 206.25
2713020 1 179.25 146.25 206.25
2739436 1 227.25 86.25 212.25
2753955 1 224.25 89.25 215.25
2753956 1 227.25 89.25 215.25
2767650 1 269.25 71.25 218.25
2767769 1 266.25 74.25 218.25
2782170 1 269.25 74.25 221.25
2815491 1 152.25 188.25 227.25
2827742 1 185.25 134.25 230.25
2827861 1 182.25 137.25 230.25
2842141 1 182.25 134.25 233.25
2998737 1 170.25 89.25 266.25
