ITEM: TIMESTEP
81519
ITEM: NUMBER OF ATOMS
53
ITEM: BOX BOUNDS pp pp pp
0 360
0 360
0 360
ITEM: ATOMS id type x y z c_myKE c_myPE
2271175 1 164.224 266.303 108.056 0 -6.25389
2497956 1 103.472 165.629 152.329 0 -7.55519
2454518 1 110.735 164.019 151.249 0 -7.55734
755334 1 161.13 168.6 151.628 0 -7.38556
2469534 1 157.754 172.012 151.3 0 -7.75647
755575 1 157.868 168.686 154.492 0 -8.29035
2497973 1 157.826 171.939 154.428 0 -8.05802
755935 1 160.992 171.869 154.421 0 -7.84412
755933 1 157.827 174.899 154.726 0 -7.58993
2483452 1 154.606 168.48 157.669 0 -7.63641
742133 1 151.401 190.238 157.794 0 -6.92786
2499295 1 157.554 203.232 157.577 0 -7.4098
2513694 1 161.447 207.125 159.503 0 -7.98078
2512491 1 151.473 172.142 160.921 0 -6.63603
2499030 1 82.5418 199.324 161.042 0 -6.25358
2499172 1 157.709 203.14 160.249 0 -8.44866
771653 1 159.47 207.298 161.255 0 -8.06332
2515858 1 172.105 263.133 162.43 0 -6.69728
2515977 1 168.693 266.255 162.195 0 -6.86513
2570565 1 132.34 186.554 173.816 0 -6.26015
2617153 1 221.643 275.863 183.372 0 -6.2538
2657215 1 164.246 190.997 194.228 0 -6.82254
2657334 1 160.991 194.246 194.093 0 -6.55543
2672687 1 138.86 218.828 199.467 0 -6.78564
2672808 1 142.781 222.75 199.469 0 -6.78779
2687088 1 140.277 221.33 202.71 0 -7.06839
2713851 1 151.49 167.415 206.964 0 -6.25371
2816584 1 192.951 216.504 229.286 0 -6.25495
2802271 1 87.682 219.701 228.026 0 -6.25493
509807 1 137.118 141.554 100.087 0 -6.25401
2454401 1 112.643 163.994 149.466 0 -6.85019
727134 1 160.564 175.396 151.1 0 -7.28805
741035 1 101.573 165.657 154.09 0 -7.85986
2454534 1 156.094 167.056 152.778 0 -6.66247
2483314 1 99.832 165.514 155.969 0 -7.10486
770213 1 156.307 170.419 156.174 0 -7.93052
2469293 1 153.02 173.347 156.426 0 -7.53223
756532 1 152.64 195.956 157.343 0 -8.1838
2499052 1 156.129 197.932 155.779 0 -8.04716
2470613 1 156.227 208.454 156.242 0 -7.19204
759406 1 133.92 267.899 156.257 0 -6.25414
784372 1 154.347 168.77 160.602 0 -7.28975
2484531 1 150.789 196.038 159.188 0 -8.10503
2513572 1 152.795 197.774 159.23 0 -8.1586
742375 1 159.81 199.199 159.181 0 -8.0909
787858 1 170.247 261.691 160.65 0 -7.03688
785452 1 152.866 194.49 162.755 0 -7.68105
785815 1 159.265 205.679 163.277 0 -7.34271
799852 1 155.81 196.013 166.043 0 -6.78872
842677 1 105.225 186.217 173.459 0 -6.25334
2584125 1 128.816 162.632 181.784 0 -6.25708
973496 1 165.846 218.105 202.175 0 -6.25555
973751 1 213.682 226.421 204.115 0 -6.25356
