ITEM: TIMESTEP
100495
ITEM: NUMBER OF ATOMS
104
ITEM: BOX BOUNDS pp pp pp
0 360
0 360
0 360
ITEM: ATOMS id type x y z
697009 1 144.75 144.75 144.75
742858 1 171.75 210.75 153.75
755930 1 147.75 177.75 156.75
757252 1 153.75 210.75 156.75
771780 1 177.75 213.75 159.75
785092 1 153.75 186.75 162.75
785340 1 177.75 192.75 162.75
798775 1 162.75 168.75 165.75
799611 1 150.75 189.75 165.75
799855 1 162.75 195.75 165.75
799974 1 159.75 198.75 165.75
799975 1 162.75 198.75 165.75
800217 1 168.75 204.75 165.75
814017 1 168.75 189.75 168.75
814018 1 171.75 189.75 168.75
814258 1 171.75 195.75 168.75
814617 1 168.75 204.75 168.75
842577 1 168.75 183.75 174.75
842694 1 159.75 186.75 174.75
842695 1 162.75 186.75 174.75
843054 1 159.75 195.75 174.75
843057 1 168.75 195.75 174.75
843177 1 168.75 198.75 174.75
843178 1 171.75 198.75 174.75
843416 1 165.75 204.75 174.75
843536 1 165.75 207.75 174.75
857455 1 162.75 195.75 177.75
857697 1 168.75 201.75 177.75
857817 1 168.75 204.75 177.75
871858 1 171.75 195.75 180.75
872219 1 174.75 204.75 180.75
872456 1 165.75 210.75 180.75
886376 1 165.75 198.75 183.75
886380 1 177.75 198.75 183.75
900656 1 165.75 195.75 186.75
914819 1 174.75 189.75 189.75
929577 1 168.75 198.75 192.75
944100 1 177.75 201.75 195.75
1000746 1 195.75 177.75 207.75
1028702 1 183.75 156.75 213.75
1072265 1 192.75 165.75 222.75
1171146 1 195.75 117.75 243.75
1188070 1 207.75 180.75 246.75
1242069 1 204.75 90.75 258.75
1313711 1 210.75 81.75 273.75
1385353 1 216.75 72.75 288.75
1456039 1 234.75 39.75 303.75
1499593 1 216.75 48.75 312.75
1513870 1 207.75 45.75 315.75
1514111 1 210.75 51.75 315.75
1528395 1 222.75 48.75 318.75
1528515 1 222.75 51.75 318.75
2425009 1 146.25 146.25 146.25
2441578 1 173.25 200.25 149.25
2467849 1 146.25 137.25 155.25
2482250 1 149.25 137.25 158.25
2498694 1 161.25 188.25 161.25
2498931 1 152.25 194.25 161.25
2513094 1 161.25 188.25 164.25
2513454 1 161.25 197.25 164.25
2513455 1 164.25 197.25 164.25
2513694 1 161.25 203.25 164.25
2527257 1 170.25 182.25 167.25
2527372 1 155.25 185.25 167.25
2527492 1 155.25 188.25 167.25
2527737 1 170.25 194.25 167.25
2527976 1 167.25 200.25 167.25
2528215 1 164.25 206.25 167.25
2541647 1 140.25 182.25 170.25
2541891 1 152.25 188.25 170.25
2542011 1 152.25 191.25 170.25
2542136 1 167.25 194.25 170.25
2542137 1 170.25 194.25 170.25
2542254 1 161.25 197.25 170.25
2542499 1 176.25 203.25 170.25
2556297 1 170.25 188.25 173.25
2556657 1 170.25 197.25 173.25
2556659 1 176.25 197.25 173.25
2571057 1 170.25 197.25 176.25
2571295 1 164.25 203.25 176.25
2571296 1 167.25 203.25 176.25
2571298 1 173.25 203.25 176.25
2571535 1 164.25 209.25 176.25
2584858 1 173.25 182.25 179.25
2584977 1 170.25 185.25 179.25
2585097 1 170.25 188.25 179.25
2585215 1 164.25 191.25 179.25
2585578 1 173.25 200.25 179.25
2585698 1 173.25 203.25 179.25
2585701 1 182.25 203.25 179.25
2599855 1 164.25 197.25 182.25
2599859 1 176.25 197.25 182.25
2599976 1 167.25 200.25 182.25
2614138 1 173.25 194.25 185.25
2614499 1 176.25 203.25 185.25
2627697 1 170.25 173.25 188.25
2628657 1 170.25 197.25 188.25
2628776 1 167.25 200.25 188.25
2642455 1 164.25 182.25 191.25
2700783 1 188.25 200.25 203.25
2755981 1 182.25 140.25 215.25
2757547 1 200.25 179.25 215.25
2898786 1 197.25 110.25 245.25
3199030 1 209.25 56.25 308.25
