ITEM: TIMESTEP
98000
ITEM: NUMBER OF ATOMS
88
ITEM: BOX BOUNDS pp pp pp
0 360
0 360
0 360
ITEM: ATOMS id type x y z c_myKE c_myPE
2410499 1 175.069 142.064 140 0.139338 -6.61117
684046 1 130.639 179.909 139.891 0.163535 -7.11978
2424900 1 178.227 141.853 143.305 0.0923025 -7.14806
2411925 1 130.789 178.191 141.866 0.103593 -6.60254
2412046 1 133.176 181.364 143.236 0.334367 -6.83324
2438928 1 141.943 130.489 148.187 0.0311887 -7.26968
2453328 1 141.666 130.57 151.393 0.121873 -6.87112
2453449 1 145.059 133.903 151.55 0.268764 -7.56736
2512252 1 144.96 168.982 165.189 0.237496 -7.54766
798770 1 144.996 172.114 165.395 0.336327 -8.47053
2512489 1 143.149 173.901 164.166 0.197878 -7.75524
2513700 1 178.348 205.57 164.012 0.286324 -6.76807
2528220 1 180.625 206.986 165.202 0.175023 -6.67848
2525446 1 135.458 132.374 167.298 0.0668994 -6.13451
2512612 1 148.185 175.21 168.723 0.0978771 -7.76416
2541292 1 152.798 173.641 170.562 0.161243 -7.93779
2555450 1 146.44 170.552 173.616 0.264095 -7.14028
842702 1 179.896 186.499 173.661 0.182654 -6.91058
2584269 1 208.73 167.603 179.73 0.25014 -6.70495
2614873 1 219.362 215.427 184.747 0.110178 -5.49435
2627937 1 170.637 174.891 187.616 0.0235945 -5.93072
2684945 1 195.942 162.429 202.542 0.131732 -7.65858
2699225 1 196.122 158.922 205.521 0.116641 -7.47213
2699345 1 196.05 162.375 205.651 0.349987 -7.69083
2713862 1 186.719 165.635 208.764 0.0790842 -7.77519
2713864 1 193.012 165.837 208.749 0.0517008 -8.70705
1029063 1 185.02 164.147 213.269 0.122938 -8.49623
2728263 1 189.841 165.84 211.836 0.18414 -8.68121
2743619 1 176.992 193.043 211.666 0.0849763 -6.90689
2756458 1 172.048 151.41 216.568 0.476708 -6.82383
2756578 1 172.15 154.397 216.342 0.0182658 -7.40739
2742421 1 183.529 159.246 215.188 0.127096 -7.94247
2742540 1 180.434 162.562 214.761 0.209733 -7.98965
2742541 1 183.573 162.573 214.918 0.0775912 -8.40632
2756941 1 181.834 164.088 216.386 0.16891 -8.3926
1014662 1 183.523 165.795 215.077 0.454196 -8.47441
2742543 1 188.248 164.324 216.651 0.0697082 -8.64435
2757064 1 191.123 164.18 216.655 0.52809 -8.37801
2771100 1 178.465 157.868 219.733 0.0893074 -7.29201
2771221 1 181.912 161.034 219.648 0.0610055 -7.87151
2771342 1 184.799 164.23 219.909 0.221879 -7.85279
1100479 1 238.868 146.726 222.106 0.0678988 -6.43889
2799781 1 178.345 154.52 223.067 0.125445 -7.78281
2985802 1 249.989 120.997 267.501 0.13182 -7.65932
2985921 1 245.038 125.876 268.966 0.333916 -7.07815
3014952 1 218.235 132.323 275.75 0.132802 -6.18758
1331829 1 205.569 177.161 283.019 0.135016 -6.33337
1387979 1 175.233 135.515 298.307 0.0698782 -7.12512
3130379 1 174.88 138.527 301.167 0.399687 -7.50172
698097 1 165.95 172.236 143.405 0.0153171 -5.94629
725449 1 143.209 132.269 150.129 0.0503659 -7.64765
739849 1 144.01 131.867 153.077 0.100081 -7.41797
798531 1 143.201 170.432 163.856 0.305468 -7.88386
2497849 1 141.59 172.012 162.434 0.0505833 -7.24296
785821 1 179.708 207.014 162.32 0.155012 -6.77666
798890 1 146.474 170.505 167.059 0.0521116 -7.66201
799011 1 146.447 173.821 166.951 0.391563 -7.7714
827572 1 149.605 170.394 170.281 0.184964 -7.62092
813291 1 147.916 172.347 168.655 0.106424 -8.21
2526892 1 150.963 172.146 168.767 0.2952 -7.83211
827693 1 151.109 171.876 172.052 0.498203 -7.97955
828300 1 178.78 188.296 171.982 0.102413 -7.08963
828301 1 181.713 188.249 171.946 0.0503868 -6.95972
971464 1 191.586 163.861 204.107 0.0525331 -8.02254
985864 1 191.418 164.333 207.156 0.0409349 -7.62367
985865 1 194.431 164.044 207.148 0.363909 -8.24475
985983 1 188.294 167.2 207.189 0.285456 -8.39195
1000262 1 185.086 164.131 210.352 0.112603 -8.07869
1000266 1 197.907 163.97 209.985 0.2002 -7.07446
1000384 1 191.493 167.438 210.495 0.128511 -8.26593
1014542 1 185.191 161.053 213.529 0.106867 -8.25832
1029064 1 189.511 162.599 214.967 0.364333 -8.55106
1014784 1 191.61 167.315 213.245 0.181239 -8.41622
2728384 1 194.511 166.953 213.226 0.176608 -8.04786
1042978 1 170.313 153.174 218.01 0.034623 -6.8251
1043099 1 173.818 156.044 218.007 0.155031 -7.17427
1028940 1 178.811 160.865 216.329 0.403783 -7.6249
1043463 1 186.44 165.634 218.004 0.101594 -8.08062
1057379 1 173.595 153.14 221.208 0.747099 -7.13752
1114165 1 257.891 132.248 236.619 0.0901075 -6.26622
1130964 1 253.174 195.083 238.675 0.259149 -6.83044
1145363 1 249.767 194.742 242.064 0.52058 -6.77714
1231392 1 213.546 184.921 259.129 0.648821 -7.04566
1231632 1 216.472 191.279 259.547 0.551518 -7.15669
2959386 1 201.553 186.772 262.42 0.184548 -6.8909
1245790 1 210.396 185.03 262.421 0.450963 -6.68181
1402380 1 175.421 135.391 301.137 0.169068 -7.65441
1416780 1 175.407 138.222 304.075 0.415811 -7.21866
