ITEM: TIMESTEP
90000
ITEM: NUMBER OF ATOMS
93
ITEM: BOX BOUNDS pp pp pp
0 360
0 360
0 360
ITEM: ATOMS id type x y z c_myKE c_myPE
2469310 1 211.982 171.977 152.221 0.342549 -6.67025
2524386 1 197.347 104.832 167.376 0.327116 -6.29257
827212 1 151.246 157.662 168.655 0.572168 -7.04305
2555212 1 151.417 161.141 171.587 0.273926 -7.69272
813064 1 187.883 170.586 170.488 0.102993 -6.6851
2569732 1 154.8 157.454 178.433 0.153145 -7.01593
2614978 1 173.824 219.654 186.343 0.171684 -6.64597
1000012 1 151.366 155.908 208.863 0.0785473 -5.7617
1044541 1 183.774 194.443 222.911 0.445742 -6.8727
1059064 1 192.67 197.672 222.797 0.174482 -7.85133
2801223 1 186.453 194.249 226.23 0.275037 -8.1499
1073223 1 189.744 194.407 226.246 0.221205 -8.22348
2786943 1 192.866 194.295 226.042 0.153216 -8.37504
1030383 1 189.759 197.497 226.015 0.244845 -8.10663
2801586 1 199.178 200.511 226.455 0.170576 -8.13111
2787306 1 200.438 202.267 224.897 0.252935 -7.88783
1073104 1 193.007 191.483 229.285 0.0464589 -8.12955
1087865 1 189.719 194.512 229.266 0.113131 -8.32453
2801225 1 196.177 194.271 229.741 0.134623 -8.1199
2816104 1 199.255 204.008 229.225 0.0253098 -8.35359
1101072 1 215.283 162.414 232.402 0.118711 -5.83101
2829901 1 186.314 191.012 232.513 0.130805 -8.36324
2830145 1 196.059 197.442 232.616 0.070613 -8.51813
2830627 1 202.297 207.045 232.494 0.226871 -8.16535
2830746 1 199.356 210.286 232.285 0.00408003 -7.62312
2830846 1 133.894 215.392 232.457 0.0302493 -6.44026
2828808 1 141.955 157.937 234.411 0.295975 -6.49562
1115344 1 188.17 160.839 235.585 0.118443 -6.72352
2844543 1 189.538 194.445 235.69 0.0146603 -8.72035
2844544 1 192.889 194.494 235.725 0.0670074 -8.62942
2844665 1 196.062 197.4 236.045 0.172906 -8.54024
2844785 1 195.896 200.741 235.556 0.127177 -8.50303
2844906 1 199.052 203.966 235.612 0.0648312 -8.29383
2845027 1 202.229 206.926 235.608 0.0627296 -7.73715
1129729 1 142.996 165.689 238.725 0.0512417 -8.10899
2857730 1 148.15 164.021 237.493 0.285695 -7.7364
2873101 1 183.332 191.225 238.739 0.0234039 -7.1845
2844303 1 186.582 194.382 238.713 0.0646626 -8.27393
2844424 1 189.692 194.469 238.779 0.137203 -8.37409
2859064 1 192.691 197.633 238.666 0.321602 -8.19242
2859185 1 195.807 200.569 238.992 0.141995 -8.00139
2859427 1 202.219 206.932 238.747 0.154619 -7.79977
1143888 1 138.789 157.655 240.697 0.0396911 -7.65445
2872128 1 143.218 162.388 241.713 0.0953286 -7.3393
1129970 1 143.402 168.532 241.916 0.111128 -7.41558
1116303 1 186.753 191.137 241.686 0.159211 -6.69153
1161188 1 200.477 232.348 243.794 0.379399 -6.5275
2555211 1 149.668 159.332 170.374 0.0590336 -7.88192
2526292 1 153.007 159.308 170.426 0.0728327 -8.15047
2569613 1 153.008 159.366 173.294 0.0350405 -8.08941
798412 1 150.172 162.636 173.528 0.32853 -7.38007
841733 1 153.176 162.364 173.435 0.105002 -7.69958
2555453 1 156.04 162.52 173.489 0.0620827 -8.34478
844018 1 168.86 221.18 173.551 0.375695 -6.6149
2555333 1 159.379 162.283 176.533 0.0891157 -6.43963
2656279 1 240.504 166.952 192.486 0.324148 -6.51491
929817 1 167.063 205.103 195.45 0.292597 -6.62061
2715780 1 184.962 218.407 208.182 0.127954 -5.80708
2726932 1 154.275 130.708 213.846 0.167738 -6.57524
2772663 1 191.08 195.764 221.122 0.326716 -7.94569
1059065 1 194.249 199.137 221.079 0.0789553 -7.1788
2787063 1 185.235 196.157 224.356 0.14227 -7.82171
2787302 1 187.945 195.937 224.503 0.188729 -8.51686
1073825 1 197.683 202.282 224.587 0.0820441 -7.48742
1087863 1 188.449 192.819 227.802 0.147523 -7.73287
1099970 1 146.658 137.02 230.894 0.0128996 -6.35039
1116662 1 184.787 192.623 230.915 0.152746 -7.42296
1102385 1 197.53 198.924 231.141 0.15136 -8.54104
2830385 1 194.586 202.375 230.871 0.232552 -8.41283
2801706 1 197.487 202.371 230.882 0.302886 -8.55177
1102507 1 200.502 202.198 230.934 0.0441489 -8.52403
1102627 1 200.762 205.576 230.847 0.472667 -8.78211
1088346 1 198.968 207.269 229.385 0.0389198 -8.54387
1102866 1 197.835 211.844 230.885 0.263323 -7.7355
1102023 1 188.07 189.635 234.206 0.0353431 -7.94095
1116542 1 188.086 192.96 233.815 0.172158 -8.52063
2830264 1 191.17 195.938 234.013 0.311263 -8.84018
1116665 1 194.466 195.983 234.166 0.187194 -8.55502
1116646 1 133.897 197.657 234.06 0.235796 -6.2769
1116906 1 197.509 202.253 234.085 0.0677583 -8.70161
1117027 1 200.564 205.486 233.922 0.178125 -8.56432
2828932 1 150.002 168.964 235.643 0.324748 -6.93565
1131306 1 197.465 202.235 237.253 0.136873 -8.27601
1131427 1 200.704 205.228 237.191 0.238728 -7.62077
2872127 1 141.572 164.051 240.403 0.039027 -8.38037
2843331 1 144.887 163.91 240.203 0.148861 -7.49067
2843570 1 147.759 170.346 240.267 0.237133 -7.13378
1116424 1 185.094 193.093 240.471 0.0354007 -8.19817
1131063 1 191.25 196.16 240.43 0.289331 -7.76636
2872368 1 140.103 165.85 242.171 0.0658583 -7.40777
1161184 1 187.886 234.238 243.486 0.0605431 -6.42824
1260402 1 121.143 189.714 265.961 0.334802 -6.77135
1246121 1 118.053 192.693 264.782 0.140912 -6.25836
