ITEM: TIMESTEP
97000
ITEM: NUMBER OF ATOMS
174
ITEM: BOX BOUNDS pp pp pp
0 360
0 360
0 360
ITEM: ATOMS id type x y z
638116 1 225.75 111.75 132.75
639077 1 228.75 135.75 132.75
668227 1 198.75 144.75 138.75
680837 1 228.75 99.75 141.75
681676 1 225.75 120.75 141.75
681799 1 234.75 123.75 141.75
681916 1 225.75 126.75 141.75
695715 1 222.75 111.75 144.75
710359 1 234.75 117.75 147.75
710481 1 240.75 120.75 147.75
711667 1 198.75 150.75 147.75
712488 1 141.75 171.75 147.75
712608 1 141.75 174.75 147.75
739040 1 237.75 114.75 153.75
740934 1 159.75 162.75 153.75
753202 1 243.75 108.75 156.75
753322 1 243.75 111.75 156.75
753440 1 237.75 114.75 156.75
755696 1 165.75 171.75 156.75
767481 1 240.75 105.75 159.75
769611 1 150.75 159.75 159.75
782241 1 240.75 114.75 162.75
784133 1 156.75 162.75 162.75
784374 1 159.75 168.75 162.75
784608 1 141.75 174.75 162.75
784611 1 150.75 174.75 162.75
796522 1 243.75 111.75 165.75
796641 1 240.75 114.75 165.75
796644 1 249.75 114.75 165.75
798774 1 159.75 168.75 165.75
798777 1 168.75 168.75 165.75
813413 1 156.75 174.75 168.75
813533 1 156.75 177.75 168.75
825802 1 243.75 123.75 171.75
842092 1 153.75 171.75 174.75
842096 1 165.75 171.75 174.75
842212 1 153.75 174.75 174.75
842214 1 159.75 174.75 174.75
842455 1 162.75 180.75 174.75
856494 1 159.75 171.75 177.75
856614 1 159.75 174.75 177.75
856615 1 162.75 174.75 177.75
856735 1 162.75 177.75 177.75
870177 1 168.75 153.75 180.75
884340 1 177.75 147.75 183.75
884592 1 213.75 153.75 183.75
885058 1 171.75 165.75 183.75
885174 1 159.75 168.75 183.75
899217 1 168.75 159.75 186.75
899218 1 171.75 159.75 186.75
899458 1 171.75 165.75 186.75
899696 1 165.75 171.75 186.75
899934 1 159.75 177.75 186.75
913258 1 171.75 150.75 189.75
913262 1 183.75 150.75 189.75
913380 1 177.75 153.75 189.75
913618 1 171.75 159.75 189.75
913856 1 165.75 165.75 189.75
913857 1 168.75 165.75 189.75
913971 1 150.75 168.75 189.75
914348 1 201.75 177.75 189.75
927784 1 189.75 153.75 192.75
927899 1 174.75 156.75 192.75
927900 1 177.75 156.75 192.75
928019 1 174.75 159.75 192.75
928150 1 207.75 162.75 192.75
928379 1 174.75 168.75 192.75
928495 1 162.75 171.75 192.75
928735 1 162.75 177.75 192.75
928736 1 165.75 177.75 192.75
941945 1 192.75 147.75 195.75
942542 1 183.75 162.75 195.75
943495 1 162.75 186.75 195.75
956229 1 204.75 144.75 198.75
956936 1 165.75 162.75 198.75
984788 1 201.75 138.75 204.75
985024 1 189.75 144.75 204.75
985139 1 174.75 147.75 204.75
985155 1 222.75 147.75 204.75
985379 1 174.75 153.75 204.75
1000136 1 165.75 162.75 207.75
1028820 1 177.75 159.75 213.75
1056893 1 156.75 141.75 219.75
1058931 1 150.75 192.75 219.75
1070107 1 198.75 111.75 222.75
1070824 1 189.75 129.75 222.75
1112115 1 222.75 81.75 231.75
1173057 1 168.75 165.75 243.75
1197921 1 240.75 66.75 249.75
1226361 1 240.75 57.75 255.75
1226596 1 225.75 63.75 255.75
1226835 1 222.75 69.75 255.75
1226958 1 231.75 72.75 255.75
2265914 1 221.25 128.25 113.25
2381000 1 239.25 125.25 137.25
2394554 1 221.25 104.25 140.25
2423719 1 236.25 113.25 146.25
2425009 1 146.25 146.25 146.25
2438480 1 239.25 122.25 149.25
2438600 1 239.25 125.25 149.25
2452520 1 239.25 113.25 152.25
2452521 1 242.25 113.25 152.25
2452522 1 245.25 113.25 152.25
2452877 1 230.25 122.25 152.25
2467518 1 233.25 128.25 155.25
2469049 1 146.25 167.25 155.25
2469054 1 161.25 167.25 155.25
2482975 1 164.25 155.25 158.25
2483330 1 149.25 164.25 158.25
2495961 1 242.25 119.25 161.25
2496077 1 230.25 122.25 161.25
2497730 1 149.25 164.25 161.25
2498093 1 158.25 173.25 161.25
2498575 1 164.25 185.25 161.25
2512487 1 140.25 173.25 164.25
2512490 1 149.25 173.25 164.25
2527011 1 152.25 176.25 167.25
2527012 1 155.25 176.25 167.25
2527013 1 158.25 176.25 167.25
2539043 1 248.25 116.25 170.25
2539163 1 248.25 119.25 170.25
2540812 1 155.25 161.25 170.25
2541292 1 155.25 173.25 170.25
2541413 1 158.25 176.25 170.25
2554627 1 200.25 146.25 173.25
2555809 1 146.25 176.25 173.25
2569381 1 182.25 155.25 176.25
2569976 1 167.25 170.25 176.25
2570093 1 158.25 173.25 176.25
2570094 1 161.25 173.25 176.25
2570096 1 167.25 173.25 176.25
2582368 1 263.25 119.25 179.25
2584373 1 158.25 170.25 179.25
2597938 1 173.25 149.25 182.25
2598182 1 185.25 155.25 182.25
2598302 1 185.25 158.25 182.25
2612462 1 185.25 152.25 185.25
2612582 1 185.25 155.25 185.25
2613059 1 176.25 167.25 185.25
2627226 1 197.25 161.25 188.25
2627456 1 167.25 167.25 188.25
2627457 1 170.25 167.25 188.25
2627458 1 173.25 167.25 188.25
2641379 1 176.25 155.25 191.25
2641499 1 176.25 158.25 191.25
2641854 1 161.25 167.25 191.25
2641857 1 170.25 167.25 191.25
2641969 1 146.25 170.25 191.25
2641974 1 161.25 170.25 191.25
2642095 1 164.25 173.25 191.25
2642096 1 167.25 173.25 191.25
2655779 1 176.25 155.25 194.25
2671373 1 158.25 185.25 197.25
2685057 1 170.25 167.25 200.25
2685058 1 173.25 167.25 200.25
2699213 1 158.25 161.25 203.25
2699596 1 227.25 170.25 203.25
2712778 1 173.25 140.25 206.25
2712898 1 173.25 143.25 206.25
2713140 1 179.25 149.25 206.25
2713260 1 179.25 152.25 206.25
2713377 1 170.25 155.25 206.25
2713380 1 179.25 155.25 206.25
2714333 1 158.25 179.25 206.25
2726341 1 182.25 119.25 209.25
2728138 1 173.25 164.25 209.25
2741344 1 191.25 134.25 212.25
2742766 1 137.25 170.25 212.25
2811910 1 209.25 98.25 227.25
2814656 1 167.25 167.25 227.25
2840113 1 218.25 83.25 233.25
2842977 1 170.25 155.25 233.25
2886422 1 185.25 161.25 242.25
2896397 1 230.25 50.25 245.25
