ITEM: TIMESTEP
97576
ITEM: NUMBER OF ATOMS
174
ITEM: BOX BOUNDS pp pp pp
0 360
0 360
0 360
ITEM: ATOMS id type x y z c_myKE c_myPE
2222586 1 197.436 120.735 100.34 0 -6.54247
2236985 1 194.178 120.848 103.595 0 -6.82629
2265915 1 225.941 127.097 107.173 0 -6.79317
2280195 1 225.945 123.177 111.09 0 -6.78246
2280434 1 222.028 127.106 111.085 0 -6.77777
2338862 1 186.586 151.563 125.859 0 -6.26127
2455262 1 186.434 183.357 151.567 0 -6.63167
2455383 1 189.642 186.497 151.136 0 -6.97566
2481545 1 194.22 114.585 157.966 0 -7.83479
768442 1 243.905 129.116 158.981 0 -6.53944
2496682 1 248.503 133.708 157.968 0 -6.54112
2482616 1 165.526 143.236 157.634 0 -6.76527
2496065 1 194.284 117.863 160.859 0 -8.3538
2496066 1 197.462 117.855 160.855 0 -8.43576
2496185 1 194.23 120.813 160.879 0 -8.39609
2496659 1 175.209 133.782 160.899 0 -8.35576
2496778 1 172.013 136.947 160.959 0 -8.81491
2496779 1 175.132 136.95 161.05 0 -8.84018
2496896 1 165.541 140.045 161.038 0 -8.41312
2496897 1 168.76 140.053 160.93 0 -8.70038
2496898 1 171.903 140.058 160.963 0 -8.52858
2497017 1 168.664 143.114 161.033 0 -7.95476
797105 1 194.275 121.084 164.077 0 -8.27305
2510704 1 191.062 124.2 164.088 0 -8.74273
2525104 1 192.699 122.779 165.699 0 -8.3281
797342 1 184.681 127.404 164.109 0 -8.00251
2510823 1 187.869 127.365 164.102 0 -8.6797
2510824 1 191.036 127.282 164.069 0 -8.48273
2510942 1 186.329 129.091 165.601 0 -8.08883
2511178 1 172.01 136.933 164.117 0 -8.63361
2511179 1 175.151 136.968 164.131 0 -8.83297
783181 1 178.29 137.037 164.188 0 -8.55327
2511297 1 168.726 140.112 164.128 0 -8.04601
2524984 1 189.649 122.811 168.788 0 -8.07659
811624 1 186.393 125.983 168.757 0 -8.01793
797700 1 178.34 136.928 167.295 0 -8.81582
812100 1 175.121 140.116 167.437 0 -8.44544
2541187 1 200.485 168.942 168.826 0 -6.53585
2552971 1 279.039 98.5236 171.862 0 -6.25525
2539980 1 178.341 136.929 170.379 0 -8.78637
841021 1 179.959 135.344 171.864 0 -8.38866
2554498 1 173.626 138.543 171.771 0 -8.31567
2539979 1 176.778 138.522 171.898 0 -8.48355
840900 1 180.153 135.258 174.84 0 -8.20105
2554501 1 183.289 135.488 175.125 0 -7.32409
2540099 1 175.216 139.987 173.662 0 -7.55007
2682551 1 213.222 98.5366 202.579 0 -7.15905
2682670 1 210.008 101.822 202.39 0 -6.61436
2683278 1 234.382 119.618 202.52 0 -6.25627
2696831 1 213.501 95.4295 205.546 0 -7.02368
2696950 1 210.08 98.5825 205.625 0 -7.56935
2724074 1 224.81 55.8121 210.14 0 -6.25563
2726576 1 165.62 122.607 210.295 0 -7.03053
1016819 1 173.809 222.935 210.142 0 -6.25431
1013096 1 163.952 120.671 211.953 0 -7.3303
2740975 1 162.208 122.677 213.434 0 -7.57478
2755255 1 162.136 119.444 216.676 0 -6.61749
1029052 1 154.395 164.084 218.612 0 -6.65627
1029531 1 149.42 178.143 219.722 0 -7.25291
2771692 1 152.801 171.929 223.074 0 -7.88175
2757171 1 151.191 173.726 221.795 0 -7.93659
1057851 1 148.033 164.255 224.831 0 -8.28553
2785970 1 151.272 167.324 224.67 0 -8.09065
1057971 1 149.667 171.936 226.325 0 -8.81165
2828932 1 152.726 162.469 229.498 0 -8.46507
2814531 1 149.656 165.626 229.429 0 -8.85823
2800251 1 149.687 168.746 229.416 0 -8.86109
1086891 1 146.517 171.938 229.508 0 -8.54138
2814770 1 149.688 171.879 229.393 0 -8.83823
1072848 1 143.14 175.247 229.508 0 -6.89353
2828931 1 149.534 162.399 232.703 0 -8.72435
1101052 1 149.652 165.603 232.586 0 -8.80429
2814650 1 146.518 168.827 232.628 0 -8.85662
1101291 1 146.531 171.943 232.601 0 -8.82806
1115930 1 146.597 175.098 232.6 0 -8.19248
2843330 1 146.484 162.532 235.714 0 -8.14714
2858091 1 146.497 165.686 235.751 0 -8.80885
1115452 1 149.639 165.597 235.692 0 -8.56703
1115691 1 146.524 168.779 235.74 0 -8.84544
2814888 1 143.261 171.894 235.769 0 -8.19395
1129849 1 143.439 162.512 238.826 0 -8.24458
2857850 1 146.495 165.545 238.872 0 -8.73691
1130089 1 143.339 168.839 238.868 0 -8.41028
2844160 1 117.609 184.615 237.567 0 -6.26043
2872010 1 146.438 159.17 241.997 0 -7.50071
1144250 1 146.417 162.302 241.992 0 -8.08134
2857969 1 143.31 165.61 242.046 0 -8.21243
2915920 1 114.416 176.978 254.795 0 -6.26571
2916172 1 154.877 184.763 253.714 0 -6.86536
2955309 1 207.002 78.1501 263.145 0 -6.90677
2983524 1 256.715 60.2369 267.553 0 -6.2544
1256833 1 221.626 95.3291 267.56 0 -6.25563
2293628 1 205.322 93.7455 117.989 0 -6.25733
2394446 1 261.499 100.123 138.366 0 -6.25505
712982 1 184.886 185.158 146.559 0 -6.52547
739383 1 184.925 119.132 153.099 0 -6.48658
741784 1 189.906 185.049 154.024 0 -6.91628
753546 1 195.828 112.877 156.493 0 -7.49551
754379 1 173.629 135.314 156.233 0 -7.93
754498 1 170.373 138.447 156.202 0 -8.01022
767946 1 195.955 113.109 159.462 0 -8.08399
768066 1 195.926 116.265 159.325 0 -8.39908
768067 1 198.996 116.186 159.376 0 -8.40027
768424 1 189.379 125.693 159.388 0 -8.06654
768659 1 173.61 132.179 159.287 0 -8.00198
768778 1 170.443 135.365 159.347 0 -8.52993
768779 1 173.594 135.35 159.391 0 -8.73763
768897 1 167.23 138.526 159.287 0 -8.37562
768898 1 170.391 138.47 159.357 0 -8.77136
782347 1 199.003 113.019 162.482 0 -7.88998
782467 1 198.974 116.33 162.541 0 -8.15163
782468 1 201.903 116.284 162.644 0 -7.57871
782586 1 195.881 119.374 162.479 0 -8.31635
782704 1 189.516 122.622 162.472 0 -8.37761
782705 1 192.565 122.485 162.503 0 -8.605
782823 1 186.318 125.8 162.471 0 -8.33087
782824 1 189.453 125.743 162.506 0 -8.7653
783180 1 176.788 135.375 162.611 0 -8.43656
786170 1 146.69 216.887 162.639 0 -6.25655
796748 1 201.991 112.884 165.868 0 -7.32298
2511180 1 179.848 135.348 165.695 0 -8.3878
797581 1 181.616 133.779 167.271 0 -7.65865
797699 1 173.598 138.533 165.797 0 -8.38314
2511299 1 176.71 138.539 165.789 0 -8.83541
813188 1 202.081 167.18 167.048 0 -6.79433
2525580 1 179.908 135.322 168.879 0 -8.55058
826499 1 175.221 136.941 170.284 0 -8.78574
2554502 1 179.786 138.538 172.061 0 -8.48836
855182 1 181.529 137.108 176.66 0 -7.25051
2628168 1 140.321 181.774 189.398 0 -6.25955
2670560 1 246.816 163.928 197.731 0 -6.25603
2685190 1 210.489 172.258 198.986 0 -6.2588
983351 1 211.862 97.0727 207.512 0 -7.41383
1013216 1 163.986 124.581 211.92 0 -7.44664
1027046 1 261.499 111.636 216.868 0 -6.25476
1029294 1 156.232 165.881 217.081 0 -7.0522
2771812 1 151.149 176.369 221.472 0 -7.49385
1070824 1 191.008 127.269 224.326 0 -7.06105
2785852 1 151.273 170.287 224.621 0 -8.75973
1058092 1 151.209 173.432 224.698 0 -8.51778
1070704 1 191.012 125.45 226.15 0 -7.07224
2798703 1 189.189 127.271 226.149 0 -7.06934
1101053 1 154.15 160.936 227.755 0 -7.53162
1072732 1 151.252 170.275 227.801 0 -8.79198
1087011 1 148.039 173.549 227.97 0 -8.40662
2757531 1 149.636 175.099 226.43 0 -7.86049
1100812 1 151.166 157.7 231.054 0 -7.98509
1100932 1 151.179 160.896 231.092 0 -8.75242
2814533 1 154.313 160.798 230.892 0 -8.38781
2829052 1 151.178 164.022 231.036 0 -8.741
2814652 1 148.098 167.232 231.039 0 -8.86382
2814889 1 148.112 170.341 231.018 0 -8.85508
1115332 1 151.239 160.819 234.16 0 -8.16449
1101171 1 148.088 167.215 234.153 0 -8.8461
1115570 1 144.94 170.399 234.217 0 -8.80706
2829407 1 144.913 173.547 234.114 0 -8.43415
2829169 1 144.934 167.238 237.351 0 -8.83283
1101289 1 144.995 170.374 237.313 0 -8.55516
2857730 1 147.963 160.794 240.41 0 -7.97361
2843568 1 141.787 167.239 240.519 0 -8.18083
1129969 1 144.906 167.149 240.432 0 -8.79883
2872249 1 141.567 167.217 243.445 0 -7.45242
1167672 1 214.895 20.3676 246.823 0 -6.25433
1186366 1 131.941 135.177 250.013 0 -6.26007
1188293 1 156.475 186.528 251.952 0 -6.55168
1212789 1 205.186 73.2315 258.229 0 -6.63844
1231252 1 151.169 181.813 259.7 0 -6.52485
1216851 1 147.905 185.065 259.608 0 -7.57431
1227309 1 205.5 76.3623 261.36 0 -7.11627
1229102 1 182.999 122.442 261.536 0 -6.25608
1245651 1 147.853 181.749 262.961 0 -6.59333
1240266 1 195.755 36.3098 264.718 0 -6.25457
1269202 1 248.739 39.501 271.093 0 -6.25502
1370238 1 234.036 45.8786 293.424 0 -6.25501
