ITEM: TIMESTEP
80000
ITEM: NUMBER OF ATOMS
62
ITEM: BOX BOUNDS pp pp pp
0 360
0 360
0 360
ITEM: ATOMS id type x y z
525896 1 165.75 186.75 108.75
526143 1 186.75 192.75 108.75
598734 1 159.75 207.75 123.75
611694 1 159.75 171.75 126.75
612408 1 141.75 189.75 126.75
612532 1 153.75 192.75 126.75
640494 1 159.75 171.75 132.75
640495 1 162.75 171.75 132.75
641097 1 168.75 186.75 132.75
654170 1 147.75 153.75 135.75
682852 1 153.75 150.75 141.75
697130 1 147.75 147.75 144.75
713590 1 207.75 198.75 147.75
725953 1 216.75 147.75 150.75
726793 1 216.75 168.75 150.75
739994 1 219.75 138.75 153.75
740711 1 210.75 156.75 153.75
741552 1 213.75 177.75 153.75
754979 1 174.75 153.75 156.75
754990 1 207.75 153.75 156.75
756071 1 210.75 180.75 156.75
768917 1 228.75 141.75 159.75
769380 1 177.75 153.75 159.75
785342 1 183.75 192.75 162.75
786073 1 216.75 210.75 162.75
798065 1 192.75 150.75 165.75
798307 1 198.75 156.75 165.75
812951 1 210.75 162.75 168.75
814751 1 210.75 207.75 168.75
829391 1 210.75 213.75 171.75
841387 1 198.75 153.75 174.75
869826 1 195.75 144.75 180.75
898870 1 207.75 150.75 186.75
913509 1 204.75 156.75 189.75
970266 1 195.75 135.75 201.75
970501 1 180.75 141.75 201.75
2167616 1 167.25 191.25 92.25
2253175 1 164.25 170.25 110.25
2282938 1 173.25 194.25 116.25
2340052 1 155.25 182.25 128.25
2367530 1 149.25 149.25 134.25
2383873 1 218.25 197.25 137.25
2398854 1 161.25 212.25 140.25
2427075 1 224.25 197.25 146.25
2440393 1 218.25 170.25 149.25
2440861 1 182.25 182.25 149.25
2454179 1 176.25 155.25 152.25
2456469 1 206.25 212.25 152.25
2468696 1 167.25 158.25 155.25
2484191 1 212.25 185.25 158.25
2485509 1 206.25 218.25 158.25
2497149 1 206.25 149.25 161.25
2511429 1 206.25 146.25 164.25
2525950 1 209.25 149.25 167.25
2540227 1 200.25 146.25 170.25
2541070 1 209.25 167.25 170.25
2542623 1 188.25 206.25 170.25
2554985 1 194.25 155.25 173.25
2557390 1 209.25 215.25 173.25
2583548 1 203.25 149.25 179.25
2584143 1 188.25 164.25 179.25
2597949 1 206.25 149.25 182.25
