ITEM: TIMESTEP
95621
ITEM: NUMBER OF ATOMS
89
ITEM: BOX BOUNDS pp pp pp
0 360
0 360
0 360
ITEM: ATOMS id type x y z
608706 1 195.75 96.75 126.75
654780 1 177.75 168.75 135.75
711058 1 171.75 135.75 147.75
714299 1 174.75 216.75 147.75
725457 1 168.75 135.75 150.75
739855 1 162.75 135.75 153.75
739856 1 165.75 135.75 153.75
754134 1 159.75 132.75 156.75
754253 1 156.75 135.75 156.75
754254 1 159.75 135.75 156.75
754255 1 162.75 135.75 156.75
754375 1 162.75 138.75 156.75
754376 1 165.75 138.75 156.75
768654 1 159.75 135.75 159.75
887938 1 171.75 237.75 183.75
888679 1 234.75 255.75 183.75
901142 1 183.75 207.75 186.75
901143 1 186.75 207.75 186.75
901261 1 180.75 210.75 186.75
902959 1 234.75 252.75 186.75
903078 1 231.75 255.75 186.75
911109 1 204.75 96.75 189.75
911348 1 201.75 102.75 189.75
912774 1 159.75 138.75 189.75
915541 1 180.75 207.75 189.75
917358 1 231.75 252.75 189.75
917479 1 234.75 255.75 189.75
958972 1 153.75 213.75 198.75
973130 1 147.75 207.75 201.75
974229 1 204.75 234.75 201.75
987661 1 180.75 210.75 204.75
1056530 1 147.75 132.75 219.75
1058569 1 144.75 183.75 219.75
1058820 1 177.75 189.75 219.75
1087617 1 168.75 189.75 225.75
1115101 1 180.75 156.75 231.75
1115220 1 177.75 159.75 231.75
1129500 1 177.75 156.75 234.75
1143887 1 138.75 156.75 237.75
1170887 1 138.75 111.75 243.75
1285968 1 141.75 108.75 267.75
1343071 1 90.75 96.75 279.75
2251247 1 140.25 122.25 110.25
2265648 1 143.25 122.25 113.25
2424537 1 170.25 134.25 146.25
2438817 1 170.25 131.25 149.25
2438936 1 167.25 134.25 149.25
2438937 1 170.25 134.25 149.25
2453336 1 167.25 134.25 152.25
2467734 1 161.25 134.25 155.25
2467855 1 164.25 137.25 155.25
2482254 1 161.25 137.25 158.25
2484417 1 170.25 191.25 158.25
2509489 1 146.25 98.25 164.25
2600221 1 182.25 206.25 182.25
2600342 1 185.25 209.25 182.25
2614501 1 182.25 203.25 185.25
2614620 1 179.25 206.25 185.25
2614621 1 182.25 206.25 185.25
2625648 1 143.25 122.25 188.25
2639108 1 203.25 98.25 191.25
2639227 1 200.25 101.25 191.25
2640047 1 140.25 122.25 191.25
2644513 1 218.25 233.25 191.25
2655174 1 161.25 140.25 194.25
2658793 1 218.25 230.25 194.25
2658912 1 215.25 233.25 194.25
2658913 1 218.25 233.25 194.25
2658914 1 221.25 233.25 194.25
2659033 1 218.25 236.25 194.25
2673313 1 218.25 233.25 197.25
2683368 1 143.25 125.25 200.25
2700065 1 194.25 182.25 203.25
2701009 1 146.25 206.25 203.25
2715661 1 182.25 212.25 206.25
2772049 1 146.25 182.25 218.25
2784530 1 149.25 134.25 221.25
2784531 1 152.25 134.25 221.25
2786466 1 197.25 182.25 221.25
2798930 1 149.25 134.25 224.25
2800865 1 194.25 182.25 224.25
2811892 1 155.25 98.25 227.25
2830871 1 212.25 212.25 230.25
2841762 1 125.25 125.25 233.25
2844771 1 152.25 200.25 233.25
2955990 1 89.25 101.25 257.25
2970875 1 104.25 113.25 260.25
2999568 1 143.25 110.25 266.25
3071070 1 89.25 98.25 281.25
