ITEM: TIMESTEP
100624
ITEM: NUMBER OF ATOMS
327
ITEM: BOX BOUNDS pp pp pp
0 360
0 360
0 360
ITEM: ATOMS id type x y z
697257 1 168.75 150.75 144.75
700260 1 177.75 225.75 144.75
725214 1 159.75 129.75 150.75
726659 1 174.75 165.75 150.75
754014 1 159.75 129.75 156.75
784495 1 162.75 171.75 162.75
788108 1 201.75 261.75 162.75
788225 1 192.75 264.75 162.75
801661 1 180.75 240.75 165.75
802508 1 201.75 261.75 165.75
813891 1 150.75 186.75 168.75
814020 1 177.75 189.75 168.75
827933 1 156.75 177.75 171.75
830822 1 183.75 249.75 171.75
831185 1 192.75 258.75 171.75
831426 1 195.75 264.75 171.75
856848 1 141.75 180.75 177.75
857100 1 177.75 186.75 177.75
857463 1 186.75 195.75 177.75
871979 1 174.75 198.75 180.75
872099 1 174.75 201.75 180.75
872222 1 183.75 204.75 180.75
872342 1 183.75 207.75 180.75
886619 1 174.75 204.75 183.75
917341 1 180.75 252.75 189.75
929699 1 174.75 201.75 192.75
942669 1 204.75 165.75 195.75
942906 1 195.75 171.75 195.75
956097 1 168.75 141.75 198.75
970494 1 159.75 141.75 201.75
971223 1 186.75 159.75 201.75
974214 1 159.75 234.75 201.75
1013463 1 186.75 135.75 210.75
1028098 1 171.75 141.75 213.75
1028950 1 207.75 162.75 213.75
1028954 1 219.75 162.75 213.75
1029082 1 243.75 165.75 213.75
1041908 1 201.75 126.75 216.75
1042502 1 183.75 141.75 216.75
1042506 1 195.75 141.75 216.75
1042507 1 198.75 141.75 216.75
1042508 1 201.75 141.75 216.75
1042620 1 177.75 144.75 216.75
1042627 1 198.75 144.75 216.75
1042628 1 201.75 144.75 216.75
1042629 1 204.75 144.75 216.75
1042630 1 207.75 144.75 216.75
1042748 1 201.75 147.75 216.75
1042750 1 207.75 147.75 216.75
1042751 1 210.75 147.75 216.75
1042868 1 201.75 150.75 216.75
1042985 1 192.75 153.75 216.75
1043109 1 204.75 156.75 216.75
1043229 1 204.75 159.75 216.75
1056784 1 189.75 138.75 219.75
1056902 1 183.75 141.75 219.75
1056906 1 195.75 141.75 219.75
1057025 1 192.75 144.75 219.75
1057026 1 195.75 144.75 219.75
1057028 1 201.75 144.75 219.75
1057030 1 207.75 144.75 219.75
1057145 1 192.75 147.75 219.75
1057146 1 195.75 147.75 219.75
1057147 1 198.75 147.75 219.75
1057148 1 201.75 147.75 219.75
1057150 1 207.75 147.75 219.75
1057151 1 210.75 147.75 219.75
1057152 1 213.75 147.75 219.75
1057153 1 216.75 147.75 219.75
1057265 1 192.75 150.75 219.75
1057266 1 195.75 150.75 219.75
1057267 1 198.75 150.75 219.75
1057270 1 207.75 150.75 219.75
1057271 1 210.75 150.75 219.75
1057273 1 216.75 150.75 219.75
1057390 1 207.75 153.75 219.75
1057393 1 216.75 153.75 219.75
1057394 1 219.75 153.75 219.75
1057510 1 207.75 156.75 219.75
1057511 1 210.75 156.75 219.75
1057514 1 219.75 156.75 219.75
1057628 1 201.75 159.75 219.75
1057631 1 210.75 159.75 219.75
1058000 1 237.75 168.75 219.75
1058117 1 228.75 171.75 219.75
1070832 1 213.75 129.75 222.75
1071186 1 195.75 138.75 222.75
1071429 1 204.75 144.75 222.75
1071549 1 204.75 147.75 222.75
1071552 1 213.75 147.75 222.75
1071553 1 216.75 147.75 222.75
1071557 1 228.75 147.75 222.75
1071668 1 201.75 150.75 222.75
1071669 1 204.75 150.75 222.75
1071673 1 216.75 150.75 222.75
1071677 1 228.75 150.75 222.75
1071786 1 195.75 153.75 222.75
1071787 1 198.75 153.75 222.75
1071788 1 201.75 153.75 222.75
1071790 1 207.75 153.75 222.75
1071792 1 213.75 153.75 222.75
1071905 1 192.75 156.75 222.75
1071907 1 198.75 156.75 222.75
1071910 1 207.75 156.75 222.75
1071911 1 210.75 156.75 222.75
1071918 1 231.75 156.75 222.75
1072028 1 201.75 159.75 222.75
1072030 1 207.75 159.75 222.75
1072032 1 213.75 159.75 222.75
1072034 1 219.75 159.75 222.75
1072153 1 216.75 162.75 222.75
1072154 1 219.75 162.75 222.75
1072635 1 222.75 174.75 222.75
1072636 1 225.75 174.75 222.75
1085829 1 204.75 144.75 225.75
1085951 1 210.75 147.75 225.75
1086070 1 207.75 150.75 225.75
1086071 1 210.75 150.75 225.75
1086072 1 213.75 150.75 225.75
1086073 1 216.75 150.75 225.75
1086188 1 201.75 153.75 225.75
1086189 1 204.75 153.75 225.75
1086200 1 237.75 153.75 225.75
1086306 1 195.75 156.75 225.75
1086309 1 204.75 156.75 225.75
1086310 1 207.75 156.75 225.75
1086312 1 213.75 156.75 225.75
1086428 1 201.75 159.75 225.75
1086552 1 213.75 162.75 225.75
1086553 1 216.75 162.75 225.75
1086793 1 216.75 168.75 225.75
1100472 1 213.75 150.75 228.75
1100473 1 216.75 150.75 228.75
1100478 1 231.75 150.75 228.75
1100592 1 213.75 153.75 228.75
1100593 1 216.75 153.75 228.75
1100595 1 222.75 153.75 228.75
1100711 1 210.75 156.75 228.75
1100712 1 213.75 156.75 228.75
1100828 1 201.75 159.75 228.75
1100829 1 204.75 159.75 228.75
1100830 1 207.75 159.75 228.75
1100832 1 213.75 159.75 228.75
1100840 1 237.75 159.75 228.75
1100951 1 210.75 162.75 228.75
1100952 1 213.75 162.75 228.75
1100953 1 216.75 162.75 228.75
1114994 1 219.75 153.75 231.75
1114995 1 222.75 153.75 231.75
1115114 1 219.75 156.75 231.75
1115233 1 216.75 159.75 231.75
1115352 1 213.75 162.75 231.75
1115353 1 216.75 162.75 231.75
1115474 1 219.75 165.75 231.75
1115476 1 225.75 165.75 231.75
1115836 1 225.75 174.75 231.75
1115837 1 228.75 174.75 231.75
1115960 1 237.75 177.75 231.75
1129394 1 219.75 153.75 234.75
1129868 1 201.75 165.75 234.75
1141508 1 201.75 96.75 237.75
1143675 1 222.75 150.75 237.75
1159033 1 216.75 174.75 240.75
1173072 1 213.75 165.75 243.75
1186755 1 222.75 147.75 246.75
2352894 1 161.25 143.25 131.25
2367294 1 161.25 143.25 134.25
2367897 1 170.25 158.25 134.25
2454301 1 182.25 158.25 152.25
2471953 1 218.25 239.25 155.25
2483577 1 170.25 170.25 158.25
2485980 1 179.25 230.25 158.25
2512735 1 164.25 179.25 164.25
2516103 1 188.25 263.25 164.25
2527248 1 143.25 182.25 167.25
2530020 1 179.25 251.25 167.25
2530505 1 194.25 263.25 167.25
2541182 1 185.25 170.25 170.25
2555589 1 206.25 170.25 173.25
2559305 1 194.25 263.25 173.25
2559423 1 188.25 266.25 173.25
2570218 1 173.25 176.25 176.25
2570460 1 179.25 182.25 176.25
2583784 1 191.25 155.25 179.25
2585340 1 179.25 194.25 179.25
2600100 1 179.25 203.25 182.25
2612825 1 194.25 161.25 185.25
2614378 1 173.25 200.25 185.25
2614498 1 173.25 203.25 185.25
2616423 1 188.25 251.25 185.25
2630453 1 158.25 242.25 188.25
2641985 1 194.25 170.25 191.25
2643538 1 173.25 209.25 191.25
2644975 1 164.25 245.25 191.25
2656507 1 200.25 173.25 194.25
2669825 1 194.25 146.25 197.25
2670422 1 185.25 161.25 197.25
2672339 1 176.25 209.25 197.25
2684472 1 215.25 152.25 200.25
2687816 1 167.25 236.25 200.25
2713264 1 191.25 152.25 206.25
2713275 1 224.25 152.25 206.25
2713623 1 188.25 161.25 206.25
2716256 1 167.25 227.25 206.25
2726945 1 194.25 134.25 209.25
2727182 1 185.25 140.25 209.25
2727548 1 203.25 149.25 209.25
2741328 1 143.25 134.25 212.25
2741709 1 206.25 143.25 212.25
2742191 1 212.25 155.25 212.25
2742192 1 215.25 155.25 212.25
2755379 1 176.25 125.25 215.25
2755515 1 224.25 128.25 215.25
2755985 1 194.25 140.25 215.25
2755986 1 197.25 140.25 215.25
2755987 1 200.25 140.25 215.25
2756100 1 179.25 143.25 215.25
2756109 1 206.25 143.25 215.25
2756230 1 209.25 146.25 215.25
2757074 1 221.25 167.25 215.25
2769660 1 179.25 122.25 218.25
2770024 1 191.25 131.25 218.25
2770385 1 194.25 140.25 218.25
2770503 1 188.25 143.25 218.25
2770505 1 194.25 143.25 218.25
2770506 1 197.25 143.25 218.25
2770508 1 203.25 143.25 218.25
2770621 1 182.25 146.25 218.25
2770625 1 194.25 146.25 218.25
2770626 1 197.25 146.25 218.25
2770627 1 200.25 146.25 218.25
2770629 1 206.25 146.25 218.25
2770630 1 209.25 146.25 218.25
2770740 1 179.25 149.25 218.25
2770748 1 203.25 149.25 218.25
2770865 1 194.25 152.25 218.25
2770871 1 212.25 152.25 218.25
2770990 1 209.25 155.25 218.25
2771478 1 233.25 167.25 218.25
2784430 1 209.25 131.25 221.25
2784547 1 200.25 134.25 221.25
2784548 1 203.25 134.25 221.25
2785145 1 194.25 149.25 221.25
2785146 1 197.25 149.25 221.25
2785147 1 200.25 149.25 221.25
2785150 1 209.25 149.25 221.25
2785151 1 212.25 149.25 221.25
2785158 1 233.25 149.25 221.25
2785265 1 194.25 152.25 221.25
2785267 1 200.25 152.25 221.25
2785271 1 212.25 152.25 221.25
2785279 1 236.25 152.25 221.25
2785386 1 197.25 155.25 221.25
2785387 1 200.25 155.25 221.25
2785392 1 215.25 155.25 221.25
2785393 1 218.25 155.25 221.25
2785506 1 197.25 158.25 221.25
2785512 1 215.25 158.25 221.25
2785513 1 218.25 158.25 221.25
2785632 1 215.25 161.25 221.25
2785878 1 233.25 167.25 221.25
2798455 1 164.25 122.25 224.25
2798820 1 179.25 131.25 224.25
2798946 1 197.25 134.25 224.25
2799303 1 188.25 143.25 224.25
2799308 1 203.25 143.25 224.25
2799427 1 200.25 146.25 224.25
2799429 1 206.25 146.25 224.25
2799430 1 209.25 146.25 224.25
2799548 1 203.25 149.25 224.25
2799549 1 206.25 149.25 224.25
2799550 1 209.25 149.25 224.25
2799660 1 179.25 152.25 224.25
2799668 1 203.25 152.25 224.25
2799669 1 206.25 152.25 224.25
2799676 1 227.25 152.25 224.25
2799784 1 191.25 155.25 224.25
2799787 1 200.25 155.25 224.25
2799788 1 203.25 155.25 224.25
2799792 1 215.25 155.25 224.25
2799908 1 203.25 158.25 224.25
2799911 1 212.25 158.25 224.25
2799912 1 215.25 158.25 224.25
2800032 1 215.25 161.25 224.25
2800629 1 206.25 176.25 224.25
2800749 1 206.25 179.25 224.25
2813714 1 221.25 143.25 227.25
2813830 1 209.25 146.25 227.25
2813831 1 212.25 146.25 227.25
2813832 1 215.25 146.25 227.25
2813952 1 215.25 149.25 227.25
2814072 1 215.25 152.25 227.25
2814189 1 206.25 155.25 227.25
2814190 1 209.25 155.25 227.25
2814191 1 212.25 155.25 227.25
2814309 1 206.25 158.25 227.25
2814310 1 209.25 158.25 227.25
2814429 1 206.25 161.25 227.25
2814430 1 209.25 161.25 227.25
2814550 1 209.25 164.25 227.25
2814553 1 218.25 164.25 227.25
2814675 1 224.25 167.25 227.25
2814791 1 212.25 170.25 227.25
2828229 1 206.25 146.25 230.25
2828588 1 203.25 155.25 230.25
2828592 1 215.25 155.25 230.25
2828712 1 215.25 158.25 230.25
2828713 1 218.25 158.25 230.25
2828829 1 206.25 161.25 230.25
2828830 1 209.25 161.25 230.25
2828831 1 212.25 161.25 230.25
2828950 1 209.25 164.25 230.25
2828953 1 218.25 164.25 230.25
2829317 1 230.25 173.25 230.25
2842872 1 215.25 152.25 233.25
2843113 1 218.25 158.25 233.25
2843114 1 221.25 158.25 233.25
2843233 1 218.25 161.25 233.25
2843353 1 218.25 164.25 233.25
2857148 1 203.25 149.25 236.25
2857272 1 215.25 152.25 236.25
2857273 1 218.25 152.25 236.25
2857392 1 215.25 155.25 236.25
2857521 1 242.25 158.25 236.25
2857878 1 233.25 167.25 236.25
2872394 1 221.25 170.25 239.25
2915236 1 227.25 161.25 248.25
