ITEM: TIMESTEP
104000
ITEM: NUMBER OF ATOMS
195
ITEM: BOX BOUNDS pp pp pp
0 360
0 360
0 360
ITEM: ATOMS id type x y z
500228 1 201.75 264.75 102.75
518219 1 174.75 354.75 105.75
518222 1 183.75 354.75 105.75
544139 1 174.75 282.75 111.75
561299 1 174.75 351.75 114.75
571865 1 192.75 255.75 117.75
612905 1 192.75 201.75 126.75
613633 1 216.75 219.75 126.75
614592 1 213.75 243.75 126.75
615663 1 186.75 270.75 126.75
617224 1 189.75 309.75 126.75
630302 1 183.75 276.75 129.75
641098 1 171.75 186.75 132.75
643262 1 183.75 240.75 132.75
643504 1 189.75 246.75 132.75
643506 1 195.75 246.75 132.75
643864 1 189.75 255.75 132.75
643985 1 192.75 258.75 132.75
644093 1 156.75 261.75 132.75
656704 1 189.75 216.75 135.75
657307 1 198.75 231.75 135.75
657310 1 207.75 231.75 135.75
658144 1 189.75 252.75 135.75
658145 1 192.75 252.75 135.75
658264 1 189.75 255.75 135.75
659100 1 177.75 276.75 135.75
659346 1 195.75 282.75 135.75
660305 1 192.75 306.75 135.75
671585 1 192.75 228.75 138.75
672426 1 195.75 249.75 138.75
672545 1 192.75 252.75 138.75
672668 1 201.75 255.75 138.75
673143 1 186.75 267.75 138.75
673860 1 177.75 285.75 138.75
674339 1 174.75 297.75 138.75
686585 1 192.75 243.75 141.75
686826 1 195.75 249.75 141.75
686943 1 186.75 252.75 141.75
686944 1 189.75 252.75 141.75
687185 1 192.75 258.75 141.75
687303 1 186.75 261.75 141.75
697009 1 144.75 144.75 144.75
697616 1 165.75 159.75 144.75
699663 1 186.75 210.75 144.75
700021 1 180.75 219.75 144.75
701107 1 198.75 246.75 144.75
703141 1 180.75 297.75 144.75
712859 1 174.75 180.75 147.75
714779 1 174.75 228.75 147.75
714785 1 192.75 228.75 147.75
715507 1 198.75 246.75 147.75
715619 1 174.75 249.75 147.75
716102 1 183.75 261.75 147.75
716820 1 177.75 279.75 147.75
726777 1 168.75 168.75 150.75
726782 1 183.75 168.75 150.75
726897 1 168.75 171.75 150.75
728342 1 183.75 207.75 150.75
730263 1 186.75 255.75 150.75
730504 1 189.75 261.75 150.75
741058 1 171.75 165.75 153.75
741299 1 174.75 171.75 153.75
741421 1 180.75 174.75 153.75
741537 1 168.75 177.75 153.75
742500 1 177.75 201.75 153.75
744785 1 192.75 258.75 153.75
755221 1 180.75 159.75 156.75
755580 1 177.75 168.75 156.75
755581 1 180.75 168.75 156.75
755820 1 177.75 174.75 156.75
755821 1 180.75 174.75 156.75
755940 1 177.75 177.75 156.75
755943 1 186.75 177.75 156.75
758702 1 183.75 246.75 156.75
758946 1 195.75 252.75 156.75
770220 1 177.75 174.75 159.75
784379 1 174.75 168.75 162.75
784500 1 177.75 171.75 162.75
784620 1 177.75 174.75 162.75
787620 1 177.75 249.75 162.75
802144 1 189.75 252.75 165.75
813056 1 165.75 165.75 168.75
816185 1 192.75 243.75 168.75
827455 1 162.75 165.75 171.75
846183 1 186.75 273.75 174.75
860104 1 189.75 261.75 177.75
873903 1 186.75 246.75 180.75
2255709 1 206.25 233.25 110.25
2260621 1 182.25 356.25 110.25
2284869 1 206.25 242.25 116.25
2285110 1 209.25 248.25 116.25
2285469 1 206.25 257.25 116.25
2285702 1 185.25 263.25 116.25
2299864 1 191.25 257.25 119.25
2299984 1 191.25 260.25 119.25
2303938 1 173.25 359.25 119.25
2311617 1 170.25 191.25 122.25
2312590 1 209.25 215.25 122.25
2313784 1 191.25 245.25 122.25
2327471 1 212.25 227.25 125.25
2328427 1 200.25 251.25 125.25
2328543 1 188.25 254.25 125.25
2328548 1 203.25 254.25 125.25
2328663 1 188.25 257.25 125.25
2329145 1 194.25 269.25 125.25
2329265 1 194.25 272.25 125.25
2329267 1 200.25 272.25 125.25
2329382 1 185.25 275.25 125.25
2341741 1 182.25 224.25 128.25
2341875 1 224.25 227.25 128.25
2343542 1 185.25 269.25 128.25
2343905 1 194.25 278.25 128.25
2344023 1 188.25 281.25 128.25
2344262 1 185.25 287.25 128.25
2354697 1 170.25 188.25 131.25
2356022 1 185.25 221.25 131.25
2356745 1 194.25 239.25 131.25
2356991 1 212.25 245.25 131.25
2357469 1 206.25 257.25 131.25
2371623 1 188.25 251.25 134.25
2371624 1 191.25 251.25 134.25
2371625 1 194.25 251.25 134.25
2371628 1 203.25 251.25 134.25
2371743 1 188.25 254.25 134.25
2371744 1 191.25 254.25 134.25
2371864 1 191.25 257.25 134.25
2371984 1 191.25 260.25 134.25
2385548 1 203.25 239.25 137.25
2386024 1 191.25 251.25 137.25
2386025 1 194.25 251.25 137.25
2386144 1 191.25 254.25 137.25
2386382 1 185.25 260.25 137.25
2386388 1 203.25 260.25 137.25
2386623 1 188.25 266.25 137.25
2386745 1 194.25 269.25 137.25
2386985 1 194.25 275.25 137.25
2398982 1 185.25 215.25 140.25
2400425 1 194.25 251.25 140.25
2400426 1 197.25 251.25 140.25
2400904 1 191.25 263.25 140.25
2401145 1 194.25 269.25 140.25
2401743 1 188.25 284.25 140.25
2401981 1 182.25 290.25 140.25
2413141 1 182.25 209.25 143.25
2415062 1 185.25 257.25 143.25
2415063 1 188.25 257.25 143.25
2428979 1 176.25 245.25 146.25
2429101 1 182.25 248.25 146.25
2429106 1 197.25 248.25 146.25
2429463 1 188.25 257.25 146.25
2429583 1 188.25 260.25 146.25
2429585 1 194.25 260.25 146.25
2429698 1 173.25 263.25 146.25
2430183 1 188.25 275.25 146.25
2439900 1 179.25 158.25 149.25
2441699 1 176.25 203.25 149.25
2442061 1 182.25 212.25 149.25
2443983 1 188.25 260.25 149.25
2444583 1 188.25 275.25 149.25
2445417 1 170.25 296.25 149.25
2454418 1 173.25 161.25 152.25
2458024 1 191.25 251.25 152.25
2459708 1 203.25 293.25 152.25
2468458 1 173.25 152.25 155.25
2468461 1 182.25 152.25 155.25
2468818 1 173.25 161.25 155.25
2469300 1 179.25 173.25 155.25
2469778 1 173.25 185.25 155.25
2469779 1 176.25 185.25 155.25
2470381 1 182.25 200.25 155.25
2471101 1 182.25 218.25 155.25
2483217 1 170.25 161.25 158.25
2483577 1 170.25 170.25 158.25
2483700 1 179.25 173.25 158.25
2483940 1 179.25 179.25 158.25
2484181 1 182.25 185.25 158.25
2486582 1 185.25 245.25 158.25
2487067 1 200.25 257.25 158.25
2487183 1 188.25 260.25 158.25
2487306 1 197.25 263.25 158.25
2487666 1 197.25 272.25 158.25
2497263 1 188.25 152.25 161.25
2497860 1 179.25 167.25 161.25
2497977 1 170.25 170.25 161.25
2498099 1 176.25 173.25 161.25
2498459 1 176.25 182.25 161.25
2499421 1 182.25 206.25 161.25
2501703 1 188.25 263.25 161.25
2526537 1 170.25 164.25 167.25
2526539 1 176.25 164.25 167.25
2530023 1 188.25 251.25 167.25
2556417 1 170.25 191.25 173.25
2558941 1 182.25 254.25 173.25
2584137 1 170.25 164.25 179.25
2602149 1 206.25 254.25 182.25
