ITEM: TIMESTEP
105000
ITEM: NUMBER OF ATOMS
154
ITEM: BOX BOUNDS pp pp pp
0 360
0 360
0 360
ITEM: ATOMS id type x y z
179378 1 291.75 162.75 36.75
770699 1 174.75 186.75 159.75
785825 1 192.75 204.75 162.75
799988 1 201.75 198.75 165.75
812573 1 156.75 153.75 168.75
826018 1 171.75 129.75 171.75
827091 1 150.75 156.75 171.75
827574 1 159.75 168.75 171.75
841505 1 192.75 156.75 174.75
841616 1 165.75 159.75 174.75
855771 1 150.75 153.75 177.75
869342 1 183.75 132.75 180.75
870171 1 150.75 153.75 180.75
870172 1 153.75 153.75 180.75
870173 1 156.75 153.75 180.75
870291 1 150.75 156.75 180.75
870292 1 153.75 156.75 180.75
870293 1 156.75 156.75 180.75
870411 1 150.75 159.75 180.75
870412 1 153.75 159.75 180.75
870413 1 156.75 159.75 180.75
870532 1 153.75 162.75 180.75
870670 1 207.75 165.75 180.75
884336 1 165.75 147.75 183.75
884571 1 150.75 153.75 183.75
884572 1 153.75 153.75 183.75
884691 1 150.75 156.75 183.75
884692 1 153.75 156.75 183.75
884695 1 162.75 156.75 183.75
884811 1 150.75 159.75 183.75
884812 1 153.75 159.75 183.75
885531 1 150.75 177.75 183.75
898970 1 147.75 153.75 186.75
899096 1 165.75 156.75 186.75
912289 1 144.75 126.75 189.75
912891 1 150.75 141.75 189.75
913493 1 156.75 156.75 189.75
913609 1 144.75 159.75 189.75
913610 1 147.75 159.75 189.75
913850 1 147.75 165.75 189.75
929951 1 210.75 207.75 192.75
942050 1 147.75 150.75 195.75
942285 1 132.75 156.75 195.75
942287 1 138.75 156.75 195.75
958754 1 219.75 207.75 198.75
973028 1 201.75 204.75 201.75
973393 1 216.75 213.75 201.75
987791 1 210.75 213.75 204.75
1014168 1 141.75 153.75 210.75
1087394 1 219.75 183.75 225.75
1173428 1 201.75 174.75 243.75
1173429 1 204.75 174.75 243.75
1173553 1 216.75 177.75 243.75
1216506 1 195.75 171.75 252.75
1360279 1 234.75 165.75 282.75
1433376 1 285.75 192.75 297.75
1504894 1 279.75 180.75 312.75
1505012 1 273.75 183.75 312.75
1505013 1 276.75 183.75 312.75
1519294 1 279.75 180.75 315.75
1533572 1 273.75 177.75 318.75
1561771 1 270.75 162.75 324.75
1561773 1 276.75 162.75 324.75
1561892 1 273.75 165.75 324.75
1562496 1 285.75 180.75 324.75
1577133 1 276.75 186.75 327.75
1619975 1 282.75 177.75 336.75
1648176 1 285.75 162.75 342.75
1676373 1 276.75 147.75 348.75
1690894 1 279.75 150.75 351.75
1705291 1 270.75 150.75 354.75
1719453 1 276.75 144.75 357.75
1719697 1 288.75 150.75 357.75
1719816 1 285.75 153.75 357.75
1864058 1 293.25 161.25 29.25
1878458 1 293.25 161.25 32.25
2454531 1 152.25 164.25 152.25
2455395 1 224.25 185.25 152.25
2470383 1 188.25 200.25 155.25
2484789 1 206.25 200.25 158.25
2497728 1 143.25 164.25 161.25
2497732 1 155.25 164.25 161.25
2512372 1 155.25 170.25 164.25
2513347 1 200.25 194.25 164.25
2525699 1 176.25 143.25 167.25
2526172 1 155.25 155.25 167.25
2527625 1 194.25 191.25 167.25
2554736 1 167.25 149.25 173.25
2554852 1 155.25 152.25 173.25
2555331 1 152.25 164.25 173.25
2556902 1 185.25 203.25 173.25
2569260 1 179.25 152.25 176.25
2583185 1 194.25 140.25 179.25
2583650 1 149.25 152.25 179.25
2583655 1 164.25 152.25 179.25
2583770 1 149.25 155.25 179.25
2583771 1 152.25 155.25 179.25
2583784 1 191.25 155.25 179.25
2584252 1 155.25 167.25 179.25
2598050 1 149.25 152.25 182.25
2598051 1 152.25 152.25 182.25
2598052 1 155.25 152.25 182.25
2598170 1 149.25 155.25 182.25
2598171 1 152.25 155.25 182.25
2598172 1 155.25 155.25 182.25
2598290 1 149.25 158.25 182.25
2598291 1 152.25 158.25 182.25
2598292 1 155.25 158.25 182.25
2598411 1 152.25 161.25 182.25
2612347 1 200.25 149.25 185.25
2612450 1 149.25 152.25 185.25
2612454 1 161.25 152.25 185.25
2612570 1 149.25 155.25 185.25
2612571 1 152.25 155.25 185.25
2626491 1 152.25 143.25 188.25
2626735 1 164.25 149.25 188.25
2627090 1 149.25 158.25 188.25
2627687 1 140.25 173.25 188.25
2640771 1 152.25 140.25 191.25
2641731 1 152.25 164.25 191.25
2656008 1 143.25 161.25 194.25
2656371 1 152.25 170.25 194.25
2657357 1 230.25 194.25 194.25
2671126 1 137.25 179.25 197.25
2671637 1 230.25 191.25 197.25
2699089 1 146.25 158.25 203.25
2786710 1 209.25 188.25 221.25
2815151 1 212.25 179.25 227.25
2900471 1 212.25 152.25 245.25
2900711 1 212.25 158.25 245.25
2930106 1 197.25 173.25 251.25
3088527 1 260.25 173.25 284.25
3088640 1 239.25 176.25 284.25
3160532 1 275.25 173.25 299.25
3218253 1 278.25 176.25 311.25
3218371 1 272.25 179.25 311.25
3247531 1 272.25 188.25 317.25
3261208 1 263.25 170.25 320.25
3261689 1 266.25 182.25 320.25
3275612 1 275.25 170.25 323.25
3276094 1 281.25 182.25 323.25
3289286 1 257.25 152.25 326.25
3290494 1 281.25 182.25 326.25
3290970 1 269.25 194.25 326.25
3304406 1 257.25 170.25 329.25
3318689 1 266.25 167.25 332.25
3333453 1 278.25 176.25 335.25
3404377 1 290.25 149.25 350.25
3404490 1 269.25 152.25 350.25
3404616 1 287.25 155.25 350.25
3418772 1 275.25 149.25 353.25
3419016 1 287.25 155.25 353.25
3433172 1 275.25 149.25 356.25
3433778 1 293.25 164.25 356.25
