ITEM: TIMESTEP
100000
ITEM: NUMBER OF ATOMS
101
ITEM: BOX BOUNDS pp pp pp
0 360
0 360
0 360
ITEM: ATOMS id type x y z
756542 1 183.75 192.75 156.75
756662 1 183.75 195.75 156.75
785222 1 183.75 189.75 162.75
813433 1 216.75 174.75 168.75
913991 1 210.75 168.75 189.75
984544 1 189.75 132.75 204.75
998822 1 183.75 129.75 207.75
998823 1 186.75 129.75 207.75
998824 1 189.75 129.75 207.75
998944 1 189.75 132.75 207.75
999065 1 192.75 135.75 207.75
1013223 1 186.75 129.75 210.75
1015899 1 294.75 195.75 210.75
1027369 1 144.75 123.75 213.75
1027742 1 183.75 132.75 213.75
1029420 1 177.75 174.75 213.75
1030039 1 234.75 189.75 213.75
1030159 1 234.75 192.75 213.75
1032091 1 270.75 240.75 213.75
1042143 1 186.75 132.75 216.75
1042262 1 183.75 135.75 216.75
1042383 1 186.75 138.75 216.75
1043940 1 177.75 177.75 216.75
1044439 1 234.75 189.75 216.75
1044564 1 249.75 192.75 216.75
1047581 1 300.75 267.75 216.75
1056542 1 183.75 132.75 219.75
1056663 1 186.75 135.75 219.75
1070822 1 183.75 129.75 222.75
1071063 1 186.75 135.75 222.75
1071183 1 186.75 138.75 222.75
1085343 1 186.75 132.75 225.75
1085463 1 186.75 135.75 225.75
1099743 1 186.75 132.75 228.75
1099864 1 189.75 135.75 228.75
1106261 1 300.75 294.75 228.75
1147414 1 279.75 243.75 237.75
1148981 1 300.75 282.75 237.75
1149100 1 297.75 285.75 237.75
1163380 1 297.75 282.75 240.75
1187466 1 195.75 165.75 246.75
1201135 1 162.75 147.75 249.75
1201865 1 192.75 165.75 249.75
1207772 1 273.75 312.75 249.75
1215536 1 165.75 147.75 252.75
1220256 1 285.75 264.75 252.75
1257300 1 177.75 111.75 261.75
2397662 1 185.25 182.25 140.25
2397781 1 182.25 185.25 140.25
2484541 1 182.25 194.25 158.25
2543470 1 209.25 227.25 170.25
2560156 1 227.25 284.25 173.25
2600718 1 233.25 218.25 182.25
2630362 1 245.25 239.25 188.25
2712303 1 188.25 128.25 206.25
2712544 1 191.25 134.25 206.25
2726823 1 188.25 131.25 209.25
2726943 1 188.25 134.25 209.25
2741222 1 185.25 131.25 212.25
2741223 1 188.25 131.25 212.25
2741343 1 188.25 134.25 212.25
2741344 1 191.25 134.25 212.25
2741463 1 188.25 137.25 212.25
2754312 1 215.25 98.25 215.25
2755623 1 188.25 131.25 215.25
2755742 1 185.25 134.25 215.25
2755743 1 188.25 134.25 215.25
2755862 1 185.25 137.25 215.25
2757419 1 176.25 176.25 215.25
2757420 1 179.25 176.25 215.25
2761656 1 287.25 281.25 215.25
2770262 1 185.25 137.25 218.25
2770263 1 188.25 137.25 218.25
2775581 1 302.25 269.25 218.25
2784422 1 185.25 131.25 221.25
2784542 1 185.25 134.25 221.25
2798822 1 185.25 131.25 224.25
2798942 1 185.25 134.25 224.25
2799063 1 188.25 137.25 224.25
2799783 1 188.25 155.25 224.25
2799902 1 185.25 158.25 224.25
2813222 1 185.25 131.25 227.25
2813468 1 203.25 137.25 227.25
2827623 1 188.25 131.25 230.25
2827744 1 191.25 134.25 230.25
2827867 1 200.25 137.25 230.25
2842264 1 191.25 137.25 233.25
2848414 1 281.25 290.25 233.25
2849378 1 293.25 314.25 233.25
2857612 1 155.25 161.25 236.25
2861014 1 281.25 245.25 236.25
2876981 1 302.25 284.25 239.25
2891380 1 299.25 284.25 242.25
2903112 1 215.25 218.25 245.25
2914615 1 164.25 146.25 248.25
2919807 1 260.25 275.25 248.25
2921252 1 275.25 311.25 248.25
2929016 1 167.25 146.25 251.25
2978149 1 326.25 293.25 260.25
3007536 1 287.25 308.25 266.25
3059357 1 230.25 164.25 278.25
