ITEM: TIMESTEP
84000
ITEM: NUMBER OF ATOMS
37
ITEM: BOX BOUNDS pp pp pp
0 360
0 360
0 360
ITEM: ATOMS id type x y z
497708 1 201.75 201.75 102.75
668697 1 168.75 156.75 138.75
669786 1 195.75 183.75 138.75
669900 1 177.75 186.75 138.75
713103 1 186.75 186.75 147.75
741425 1 192.75 174.75 153.75
755822 1 183.75 174.75 156.75
769618 1 171.75 159.75 159.75
798786 1 195.75 168.75 165.75
798906 1 195.75 171.75 165.75
813066 1 195.75 165.75 168.75
855903 1 186.75 156.75 177.75
899591 1 210.75 168.75 186.75
899716 1 225.75 171.75 186.75
913989 1 204.75 168.75 189.75
914106 1 195.75 171.75 189.75
2139671 1 212.25 212.25 86.25
2168834 1 221.25 221.25 92.25
2197028 1 203.25 206.25 98.25
2225587 1 200.25 200.25 104.25
2411457 1 170.25 167.25 143.25
2412061 1 182.25 182.25 143.25
2468814 1 161.25 161.25 155.25
2497863 1 188.25 167.25 161.25
2555471 1 212.25 167.25 173.25
2555587 1 200.25 170.25 173.25
2583909 1 206.25 158.25 179.25
2583917 1 230.25 158.25 179.25
2598790 1 209.25 170.25 182.25
2612947 1 200.25 164.25 185.25
2627470 1 209.25 167.25 188.25
2641866 1 197.25 167.25 191.25
2641990 1 209.25 170.25 191.25
2670071 1 212.25 152.25 197.25
2671030 1 209.25 176.25 197.25
2698508 1 203.25 143.25 203.25
2770281 1 242.25 137.25 218.25
