ITEM: TIMESTEP
96000
ITEM: NUMBER OF ATOMS
63
ITEM: BOX BOUNDS pp pp pp
0 360
0 360
0 360
ITEM: ATOMS id type x y z c_myKE c_myPE
2298301 1 181.588 221.505 114.389 0.02953 -6.66999
2327239 1 242.265 222.742 123.374 0.279676 -6.69498
2384205 1 132.445 208.778 133.538 0.188407 -6.78251
2411093 1 158.016 155.621 139.901 0.261751 -6.66655
727243 1 126.07 178 149.471 0.327814 -6.71114
2473387 1 202.742 280.401 153.043 0.122617 -6.0805
2456214 1 155.919 203.752 154.533 0.0704762 -7.53964
2456210 1 149.882 207.048 154.661 0.080227 -8.15264
771410 1 152.811 207.154 154.715 0.121021 -7.99708
728332 1 149.538 210.025 154.762 0.0960595 -7.75028
2485719 1 113.52 228.015 156.042 0.202691 -6.37288
2484770 1 152.823 203.584 157.657 0.0609476 -8.25037
742611 1 152.815 206.954 157.957 0.0927106 -8.45745
2510586 1 199.216 120.725 162.171 0.0876526 -6.38369
2499294 1 152.99 200.847 161.148 0.0469655 -8.04721
2513811 1 156.161 206.91 161.058 0.125449 -8.16341
2470610 1 149.692 210.256 160.869 0.149661 -8.53246
2513931 1 152.871 210.247 160.862 0.0547274 -8.59557
2527474 1 95.2242 187.907 165.785 0.240859 -6.3001
2528065 1 68.5544 203.876 165.707 0.201724 -6.26737
786172 1 152.816 206.978 164.177 0.131453 -8.17054
2585586 1 199.304 202.368 178.282 0.168885 -7.35687
2585672 1 88.4446 205.719 178.125 0.338854 -7.25528
2585707 1 202.616 205.666 178.056 0.110566 -7.37378
2571391 1 85.8679 208.964 177.301 0.173166 -7.19965
933335 1 288.573 298.362 190.57 0.0297152 -7.04325
944325 1 127.058 212.585 196.183 0.114057 -6.0465
2660836 1 231.134 287.203 196.867 0.119049 -6.00181
2677547 1 329.978 347.414 197.155 0.259268 -6.49864
992377 1 294.561 339.893 207.019 0.207284 -7.22768
1049981 1 307.96 336.431 216.222 0.312629 -6.42671
2878547 1 329.841 331.178 243.82 0.347315 -6.29143
2994098 1 302.558 340.975 267.9 0.319697 -7.75475
1280378 1 301.603 336.333 269.885 0.0538499 -6.43766
524334 1 159.254 144.743 103.434 0.120619 -6.13702
555443 1 251.872 207.106 111.543 0.108988 -6.42075
584583 1 186.276 216.595 115.943 0.0433491 -6.8228
585795 1 224.419 249.058 115.766 0.221424 -6.76494
613519 1 237.299 218.272 122.538 0.0369319 -6.73541
610490 1 143.753 138.184 124.52 0.13087 -6.79711
785575 1 157.566 201.951 156.234 0.117048 -7.50779
2485012 1 151.225 208.761 156.243 0.172019 -8.57634
2484773 1 154.539 205.36 159.343 0.0498572 -8.88258
785695 1 157.606 205.456 159.376 0.161307 -8.04691
771647 1 144.872 208.465 159.16 0.0857585 -8.14128
2485128 1 148.057 208.564 159.223 0.302472 -8.30091
771531 1 151.185 208.647 159.204 0.0190312 -8.51652
757012 1 154.534 208.27 159.491 0.209618 -8.29523
757249 1 148.051 211.828 159.448 0.111924 -8.17544
2485372 1 150.802 215.059 159.261 0.147157 -7.63828
757373 1 151.107 211.741 162.722 0.302606 -8.10858
802362 1 119.464 265.899 165.826 0.0734481 -6.64291
815711 1 211.672 233.593 169.132 0.0165629 -7.05818
843306 1 197.763 203.859 173.71 0.207731 -6.79071
2542835 1 98.6614 213.637 172.406 0.147357 -6.60223
857585 1 195.966 198.901 178.369 0.0840415 -6.78822
889885 1 256.235 291.347 182.013 0.0157142 -5.82783
905372 1 278.659 320.193 187.965 0.0175741 -6.14383
947482 1 248.774 291.008 194.169 0.041601 -5.25473
1108049 1 268.99 348.871 230.626 0.0159573 -6.10977
1206959 1 366.721 299.591 251.698 0.220305 -6.08916
2979697 1 297.867 339.484 263.013 0.372355 -7.14134
1280500 1 306.201 341.057 270.826 0.37942 -7.22793
