ITEM: TIMESTEP
87578
ITEM: NUMBER OF ATOMS
77
ITEM: BOX BOUNDS pp pp pp
0 360
0 360
0 360
ITEM: ATOMS id type x y z c_myKE c_myPE
597064 1 191.023 162.28 120.828 0 -6.25577
2371384 1 191.015 250.342 130.419 0 -6.82428
657783 1 189.759 248.422 132.339 0 -6.82452
2381218 1 171.892 127.19 135.514 0 -6.82134
2381339 1 175.147 130.444 135.647 0 -6.55243
672286 1 135.533 250.369 135.531 0 -6.25543
699761 1 113.293 216.426 142.254 0 -6.72635
2413240 1 114.704 213.174 144.75 0 -7.06327
2427640 1 116.532 214.984 144.74 0 -7.03384
2441448 1 145.361 197.157 151.298 0 -7.59225
727972 1 144.996 194.089 154.464 0 -8.25725
742368 1 144.255 196.418 155.453 0 -8.33862
770931 1 148.564 197.53 154.323 0 -8.08189
742250 1 147.306 196.88 158.39 0 -7.6662
2499168 1 144.525 200.208 158.748 0 -7.86002
2470248 1 148.63 200.983 157.666 0 -8.09233
785809 1 145.264 204.204 157.804 0 -7.58713
771165 1 141.538 194.562 161.274 0 -8.43736
799964 1 133.062 197.622 160.726 0 -8.06203
771288 1 145.275 201.065 161.089 0 -8.2302
814128 1 138.694 193.768 166.01 0 -8.21932
799727 1 135.759 198.255 165.129 0 -7.99609
785448 1 142.435 195.353 164.123 0 -8.44323
800208 1 137.742 199.933 165.341 0 -8.13892
800089 1 142.044 200.745 164.074 0 -8.32318
828646 1 138.898 195.446 167.97 0 -8.10614
857445 1 138.698 200.838 167.626 0 -7.83176
2542247 1 138.89 197.274 169.896 0 -8.02285
2572724 1 127.296 243.916 174.946 0 -6.53996
2572843 1 124.036 247.169 175.056 0 -6.82407
2570807 1 138.698 184.472 178.365 0 -7.90485
857089 1 135.408 181.3 181.578 0 -8.32829
2570447 1 138.563 181.449 181.694 0 -8.62541
2599486 1 138.598 184.48 181.593 0 -8.19672
2613526 1 138.624 181.346 184.819 0 -8.34063
885288 1 142.033 178.176 191.052 0 -6.56105
2857114 1 97.2667 148.282 240.793 0 -6.25565
1159121 1 117.812 180.02 245.13 0 -6.54309
497678 1 106.466 202.152 100.083 0 -6.25453
553967 1 137.12 167.068 109.671 0 -6.8228
553496 1 163.904 154.292 111.6 0 -6.25538
568366 1 133.862 166.949 112.927 0 -6.54387
2339812 1 154.337 175.399 127.546 0 -6.25968
641577 1 169.031 198.975 130.83 0 -6.86502
655977 1 167.153 200.854 131.91 0 -6.9534
656096 1 163.915 204.094 131.918 0 -6.86752
711646 1 135.195 149.852 144.74 0 -6.25662
2484286 1 143.482 192.434 156.027 0 -7.58276
771048 1 142.728 194.845 156.867 0 -7.99172
2470008 1 146.872 195.814 155.871 0 -8.51394
2484405 1 136.681 197.623 156.942 0 -8.10679
2470247 1 143.267 195.798 159.381 0 -8.57686
2513329 1 145.794 195.436 159.908 0 -8.103
2513684 1 134.909 197.631 158.87 0 -8.18036
799847 1 142.882 198.564 159.722 0 -8.23587
2485008 1 146.977 199.463 159.359 0 -8.4614
2542487 1 136.667 201.433 160.728 0 -8.19579
785324 1 136.837 192.054 162.468 0 -7.89743
2498930 1 141.217 198.902 161.718 0 -8.0496
771292 1 143.857 199.351 162.585 0 -8.47783
797934 1 159.525 146.613 165.83 0 -6.2631
814246 1 133.569 199.251 166.14 0 -7.45934
814368 1 139.83 201.592 165.308 0 -8.17291
885887 1 136.991 182.873 180.015 0 -8.17859
2570569 1 140.364 186.045 180.103 0 -7.33077
914325 1 136.991 176.692 183.23 0 -7.87194
885525 1 133.804 179.814 183.199 0 -7.80193
2584847 1 136.966 179.861 183.247 0 -8.5449
871489 1 140.314 182.926 183.158 0 -8.1446
2613646 1 140.365 176.596 186.151 0 -7.55521
2627925 1 136.88 179.893 186.418 0 -7.88206
914332 1 149.832 178.421 188.281 0 -6.31728
1043457 1 167.424 165.499 221.131 0 -7.06372
1072136 1 165.999 163 224.373 0 -6.78432
1057857 1 169.243 165.501 222.955 0 -7.06656
1131295 1 162.668 200.917 239.218 0 -6.25427
1173760 1 114.652 183.183 245.703 0 -6.54306
