ITEM: TIMESTEP
99000
ITEM: NUMBER OF ATOMS
100
ITEM: BOX BOUNDS pp pp pp
0 360
0 360
0 360
ITEM: ATOMS id type x y z
682377 1 168.75 138.75 141.75
712022 1 183.75 159.75 147.75
726777 1 168.75 168.75 150.75
740458 1 171.75 150.75 153.75
740463 1 186.75 150.75 153.75
740699 1 174.75 156.75 153.75
754736 1 165.75 147.75 156.75
754739 1 174.75 147.75 156.75
754856 1 165.75 150.75 156.75
754857 1 168.75 150.75 156.75
754980 1 177.75 153.75 156.75
769257 1 168.75 150.75 159.75
769380 1 177.75 153.75 159.75
783420 1 177.75 144.75 162.75
783901 1 180.75 156.75 162.75
798663 1 186.75 165.75 165.75
826496 1 165.75 141.75 171.75
841853 1 156.75 165.75 174.75
870652 1 153.75 165.75 180.75
898496 1 165.75 141.75 186.75
913019 1 174.75 144.75 189.75
970746 1 195.75 147.75 201.75
985385 1 192.75 153.75 204.75
999784 1 189.75 153.75 207.75
999790 1 207.75 153.75 207.75
1041776 1 165.75 123.75 216.75
1054966 1 135.75 93.75 219.75
1056543 1 186.75 132.75 219.75
1071300 1 177.75 141.75 222.75
1072040 1 237.75 159.75 222.75
1084734 1 159.75 117.75 225.75
1085942 1 183.75 147.75 225.75
1098403 1 126.75 99.75 228.75
1099745 1 192.75 132.75 228.75
1129887 1 258.75 165.75 234.75
1158200 1 237.75 153.75 240.75
1187712 1 213.75 171.75 246.75
1302574 1 279.75 162.75 270.75
1331241 1 240.75 159.75 276.75
1331601 1 240.75 168.75 276.75
1344918 1 231.75 141.75 279.75
1359324 1 249.75 141.75 282.75
1359804 1 249.75 153.75 282.75
1360275 1 222.75 165.75 282.75
1388367 1 258.75 147.75 288.75
1388606 1 255.75 153.75 288.75
1388611 1 270.75 153.75 288.75
1388836 1 225.75 159.75 288.75
1389324 1 249.75 171.75 288.75
1417650 1 267.75 159.75 294.75
1460845 1 252.75 159.75 303.75
1475127 1 258.75 156.75 306.75
2410614 1 161.25 146.25 143.25
2425260 1 179.25 152.25 146.25
2439296 1 167.25 143.25 149.25
2439901 1 182.25 158.25 149.25
2468336 1 167.25 149.25 155.25
2468454 1 161.25 152.25 155.25
2468456 1 167.25 152.25 155.25
2468698 1 173.25 158.25 155.25
2482261 1 182.25 137.25 158.25
2482736 1 167.25 149.25 158.25
2511539 1 176.25 149.25 164.25
2511659 1 176.25 152.25 164.25
2511775 1 164.25 155.25 164.25
2525696 1 167.25 143.25 167.25
2526178 1 173.25 155.25 167.25
2539741 1 182.25 134.25 170.25
2569014 1 161.25 146.25 176.25
2682397 1 110.25 101.25 200.25
2697886 1 137.25 128.25 203.25
2699222 1 185.25 161.25 203.25
2710487 1 140.25 83.25 206.25
2712524 1 131.25 134.25 206.25
2741101 1 182.25 128.25 212.25
2741931 1 152.25 149.25 212.25
2770253 1 158.25 137.25 218.25
2770254 1 161.25 137.25 218.25
2785639 1 236.25 161.25 221.25
2828589 1 206.25 155.25 230.25
2842743 1 188.25 149.25 233.25
2959291 1 272.25 182.25 257.25
2987121 1 242.25 158.25 263.25
3031040 1 239.25 176.25 272.25
3072922 1 245.25 143.25 281.25
3074488 1 263.25 182.25 281.25
3087685 1 254.25 152.25 284.25
3088288 1 263.25 167.25 284.25
3101963 1 248.25 149.25 287.25
3115405 1 254.25 125.25 290.25
3116247 1 260.25 146.25 290.25
3131607 1 260.25 170.25 293.25
3145528 1 263.25 158.25 296.25
3159327 1 260.25 143.25 299.25
3159919 1 236.25 158.25 299.25
3188725 1 254.25 158.25 305.25
3202767 1 260.25 149.25 308.25
3202890 1 269.25 152.25 308.25
3217050 1 269.25 146.25 311.25
3231807 1 260.25 155.25 314.25
