ITEM: TIMESTEP
97000
ITEM: NUMBER OF ATOMS
184
ITEM: BOX BOUNDS pp pp pp
0 360
0 360
0 360
ITEM: ATOMS id type x y z
698333 1 156.75 177.75 144.75
712132 1 153.75 162.75 147.75
740572 1 153.75 153.75 153.75
741169 1 144.75 168.75 153.75
769606 1 135.75 159.75 159.75
785464 1 189.75 195.75 162.75
799023 1 186.75 174.75 165.75
813175 1 162.75 168.75 168.75
813176 1 165.75 168.75 168.75
813301 1 180.75 171.75 168.75
813415 1 162.75 174.75 168.75
813788 1 201.75 183.75 168.75
813903 1 186.75 186.75 168.75
813905 1 192.75 186.75 168.75
814021 1 180.75 189.75 168.75
814387 1 198.75 198.75 168.75
814871 1 210.75 210.75 168.75
827701 1 180.75 171.75 171.75
827819 1 174.75 174.75 171.75
828182 1 183.75 183.75 171.75
828311 1 210.75 186.75 171.75
842580 1 177.75 183.75 174.75
842704 1 189.75 186.75 174.75
843423 1 186.75 204.75 174.75
843424 1 189.75 204.75 174.75
843782 1 183.75 213.75 174.75
844015 1 162.75 219.75 174.75
844016 1 165.75 219.75 174.75
844269 1 204.75 225.75 174.75
856378 1 171.75 168.75 177.75
856620 1 177.75 174.75 177.75
856869 1 204.75 180.75 177.75
856977 1 168.75 183.75 177.75
857102 1 183.75 186.75 177.75
857220 1 177.75 189.75 177.75
857226 1 195.75 189.75 177.75
857465 1 192.75 195.75 177.75
857587 1 198.75 198.75 177.75
857944 1 189.75 207.75 177.75
858654 1 159.75 225.75 177.75
870288 1 141.75 156.75 180.75
871502 1 183.75 186.75 180.75
871861 1 180.75 195.75 180.75
871862 1 183.75 195.75 180.75
871863 1 186.75 195.75 180.75
871864 1 189.75 195.75 180.75
871865 1 192.75 195.75 180.75
871985 1 192.75 198.75 180.75
872463 1 186.75 210.75 180.75
872946 1 195.75 222.75 180.75
886021 1 180.75 189.75 183.75
886141 1 180.75 192.75 183.75
886142 1 183.75 192.75 183.75
886143 1 186.75 192.75 183.75
886256 1 165.75 195.75 183.75
886264 1 189.75 195.75 183.75
886983 1 186.75 213.75 183.75
899084 1 129.75 156.75 186.75
900542 1 183.75 192.75 186.75
900662 1 183.75 195.75 186.75
900663 1 186.75 195.75 186.75
900664 1 189.75 195.75 186.75
914581 1 180.75 183.75 189.75
914830 1 207.75 189.75 189.75
915062 1 183.75 195.75 189.75
915063 1 186.75 195.75 189.75
915188 1 201.75 198.75 189.75
915544 1 189.75 207.75 189.75
929821 1 180.75 204.75 192.75
929947 1 198.75 207.75 192.75
942642 1 123.75 165.75 195.75
943133 1 156.75 177.75 195.75
943253 1 156.75 180.75 195.75
943739 1 174.75 192.75 195.75
943740 1 177.75 192.75 195.75
943859 1 174.75 195.75 195.75
972419 1 174.75 189.75 201.75
986943 1 186.75 192.75 204.75
987184 1 189.75 198.75 204.75
987189 1 204.75 198.75 204.75
1000480 1 117.75 171.75 207.75
1000979 1 174.75 183.75 207.75
1015252 1 153.75 180.75 210.75
1015862 1 183.75 195.75 210.75
1028205 1 132.75 144.75 213.75
1057008 1 141.75 144.75 219.75
1086281 1 120.75 156.75 225.75
1086403 1 126.75 159.75 225.75
1102004 1 129.75 189.75 228.75
1102365 1 132.75 198.75 228.75
1114484 1 129.75 141.75 231.75
1116404 1 129.75 189.75 231.75
1128886 1 135.75 141.75 234.75
1129121 1 120.75 147.75 234.75
1131162 1 123.75 198.75 234.75
1143403 1 126.75 144.75 237.75
2410971 1 152.25 155.25 143.25
2425367 1 140.25 155.25 146.25
2439415 1 164.25 146.25 149.25
2439535 1 164.25 149.25 149.25
2455023 1 188.25 176.25 152.25
2484182 1 185.25 185.25 158.25
2498942 1 185.25 194.25 161.25
2499423 1 188.25 206.25 161.25
2512739 1 176.25 179.25 164.25
2514308 1 203.25 218.25 164.25
2526657 1 170.25 167.25 167.25
2528105 1 194.25 203.25 167.25
2528225 1 194.25 206.25 167.25
2528708 1 203.25 218.25 167.25
2539967 1 140.25 140.25 170.25
2540935 1 164.25 164.25 170.25
2541178 1 173.25 170.25 170.25
2541902 1 185.25 188.25 170.25
2542022 1 185.25 191.25 170.25
2555819 1 176.25 176.25 173.25
2556180 1 179.25 185.25 173.25
2556184 1 191.25 185.25 173.25
2556662 1 185.25 197.25 173.25
2556663 1 188.25 197.25 173.25
2556664 1 191.25 197.25 173.25
2570101 1 182.25 173.25 176.25
2570698 1 173.25 188.25 176.25
2570699 1 176.25 188.25 176.25
2570700 1 179.25 188.25 176.25
2570707 1 200.25 188.25 176.25
2571894 1 161.25 218.25 176.25
2584256 1 167.25 167.25 179.25
2584981 1 182.25 185.25 179.25
2585459 1 176.25 197.25 179.25
2585462 1 185.25 197.25 179.25
2586066 1 197.25 212.25 179.25
2599621 1 182.25 191.25 182.25
2599741 1 182.25 194.25 182.25
2599742 1 185.25 194.25 182.25
2599743 1 188.25 194.25 182.25
2599744 1 191.25 194.25 182.25
2599864 1 191.25 197.25 182.25
2599866 1 197.25 197.25 182.25
2613537 1 170.25 179.25 185.25
2613781 1 182.25 185.25 185.25
2613782 1 185.25 185.25 185.25
2614020 1 179.25 191.25 185.25
2614021 1 182.25 191.25 185.25
2614141 1 182.25 194.25 185.25
2614143 1 188.25 194.25 185.25
2614501 1 182.25 203.25 185.25
2627941 1 182.25 179.25 188.25
2628182 1 185.25 185.25 188.25
2628423 1 188.25 191.25 188.25
2628542 1 185.25 194.25 188.25
2628543 1 188.25 194.25 188.25
2628661 1 182.25 197.25 188.25
2642346 1 197.25 179.25 191.25
2642819 1 176.25 191.25 191.25
2642822 1 185.25 191.25 191.25
2642823 1 188.25 191.25 191.25
2642939 1 176.25 194.25 191.25
2642942 1 185.25 194.25 191.25
2642943 1 188.25 194.25 191.25
2643059 1 176.25 197.25 191.25
2670283 1 128.25 158.25 197.25
2671383 1 188.25 185.25 197.25
2671490 1 149.25 188.25 197.25
2672221 1 182.25 206.25 197.25
2672344 1 191.25 209.25 197.25
2672585 1 194.25 215.25 197.25
2687348 1 203.25 224.25 200.25
2700291 1 152.25 188.25 203.25
2700543 1 188.25 194.25 203.25
2714449 1 146.25 182.25 206.25
2714451 1 152.25 182.25 206.25
2727880 1 119.25 158.25 209.25
2728612 1 155.25 176.25 209.25
2773256 1 167.25 212.25 218.25
2784648 1 143.25 137.25 221.25
2799288 1 143.25 143.25 224.25
2799525 1 134.25 149.25 224.25
2829399 1 116.25 176.25 230.25
2831328 1 143.25 224.25 230.25
2858085 1 134.25 173.25 236.25
2858201 1 122.25 176.25 236.25
2900561 1 122.25 155.25 245.25
2930081 1 122.25 173.25 251.25
