ITEM: TIMESTEP
98000
ITEM: NUMBER OF ATOMS
85
ITEM: BOX BOUNDS pp pp pp
0 360
0 360
0 360
ITEM: ATOMS id type x y z
610858 1 171.75 150.75 126.75
697009 1 144.75 144.75 144.75
712375 1 162.75 168.75 147.75
712495 1 162.75 171.75 147.75
840424 1 189.75 129.75 174.75
841620 1 177.75 159.75 174.75
870335 1 282.75 156.75 180.75
871135 1 162.75 177.75 180.75
913531 1 270.75 156.75 189.75
928050 1 267.75 159.75 192.75
929086 1 135.75 186.75 192.75
941969 1 264.75 147.75 195.75
942327 1 258.75 156.75 195.75
942447 1 258.75 159.75 195.75
942531 1 150.75 162.75 195.75
956374 1 279.75 147.75 198.75
986686 1 135.75 186.75 204.75
987086 1 255.75 195.75 204.75
987208 1 261.75 198.75 204.75
988261 1 180.75 225.75 204.75
988381 1 180.75 228.75 204.75
1000285 1 252.75 165.75 207.75
1001465 1 192.75 195.75 207.75
1001486 1 255.75 195.75 207.75
1002779 1 174.75 228.75 207.75
1002900 1 177.75 231.75 207.75
1014926 1 255.75 171.75 210.75
1015049 1 264.75 174.75 210.75
1015727 1 138.75 192.75 210.75
1016702 1 183.75 216.75 210.75
1029447 1 258.75 174.75 213.75
1043001 1 240.75 153.75 216.75
1043248 1 261.75 159.75 216.75
1045745 1 192.75 222.75 216.75
1058007 1 258.75 168.75 219.75
1071444 1 249.75 144.75 222.75
1071681 1 240.75 150.75 222.75
1072639 1 234.75 174.75 222.75
1086927 1 258.75 171.75 225.75
1103245 1 252.75 219.75 228.75
1159042 1 243.75 174.75 240.75
2354095 1 164.25 173.25 131.25
2396937 1 170.25 164.25 140.25
2397057 1 170.25 167.25 140.25
2426095 1 164.25 173.25 146.25
2439409 1 146.25 146.25 149.25
2510945 1 194.25 134.25 164.25
2526181 1 182.25 155.25 167.25
2540133 1 278.25 143.25 170.25
2540581 1 182.25 155.25 170.25
2598774 1 161.25 170.25 182.25
2611889 1 266.25 137.25 185.25
2612103 1 188.25 143.25 185.25
2627217 1 170.25 161.25 188.25
2627251 1 272.25 161.25 188.25
2641296 1 287.25 152.25 191.25
2655572 1 275.25 149.25 194.25
2670813 1 278.25 170.25 197.25
2670815 1 284.25 170.25 197.25
2671025 1 194.25 176.25 197.25
2672123 1 248.25 203.25 197.25
2685327 1 260.25 173.25 200.25
2685766 1 137.25 185.25 200.25
2685783 1 188.25 185.25 200.25
2685885 1 134.25 188.25 200.25
2698048 1 263.25 131.25 203.25
2699486 1 257.25 167.25 203.25
2699606 1 257.25 170.25 203.25
2700047 1 140.25 182.25 203.25
2700185 1 194.25 185.25 203.25
2700904 1 191.25 203.25 203.25
2715326 1 257.25 203.25 206.25
2715423 1 188.25 206.25 206.25
2715424 1 191.25 206.25 206.25
2727686 1 257.25 152.25 209.25
2728484 1 131.25 173.25 209.25
2731022 1 185.25 236.25 209.25
2742685 1 254.25 167.25 212.25
2742885 1 134.25 173.25 212.25
2742921 1 242.25 173.25 212.25
2744008 1 263.25 200.25 212.25
2756963 1 248.25 164.25 215.25
2800408 1 263.25 170.25 224.25
2800638 1 233.25 176.25 224.25
2815047 1 260.25 176.25 227.25
