ITEM: TIMESTEP
91000
ITEM: NUMBER OF ATOMS
124
ITEM: BOX BOUNDS pp pp pp
0 360
0 360
0 360
ITEM: ATOMS id type x y z
754351 1 90.75 138.75 156.75
755912 1 93.75 177.75 156.75
768750 1 87.75 138.75 159.75
828877 1 108.75 201.75 171.75
840510 1 87.75 132.75 174.75
854702 1 183.75 126.75 177.75
868982 1 183.75 123.75 180.75
868983 1 186.75 123.75 180.75
869102 1 183.75 126.75 180.75
869103 1 186.75 126.75 180.75
869222 1 183.75 129.75 180.75
869932 1 153.75 147.75 180.75
883144 1 189.75 117.75 183.75
883263 1 186.75 120.75 183.75
883383 1 186.75 123.75 183.75
899464 1 189.75 165.75 186.75
899678 1 111.75 171.75 186.75
912995 1 102.75 144.75 189.75
913863 1 186.75 165.75 189.75
913984 1 189.75 168.75 189.75
927903 1 186.75 156.75 192.75
928143 1 186.75 162.75 192.75
928263 1 186.75 165.75 192.75
928264 1 189.75 165.75 192.75
930038 1 111.75 210.75 192.75
942423 1 186.75 159.75 195.75
942424 1 189.75 159.75 195.75
942546 1 195.75 162.75 195.75
942665 1 192.75 165.75 195.75
943861 1 180.75 195.75 195.75
956585 1 192.75 153.75 198.75
956704 1 189.75 156.75 198.75
956824 1 189.75 159.75 198.75
1029288 1 141.75 171.75 213.75
1029407 1 138.75 174.75 213.75
1029408 1 141.75 174.75 213.75
1029409 1 144.75 174.75 213.75
1029530 1 147.75 177.75 213.75
1040211 1 150.75 84.75 216.75
1043809 1 144.75 174.75 216.75
1044050 1 147.75 180.75 216.75
1044171 1 150.75 183.75 216.75
1044292 1 153.75 186.75 216.75
1054610 1 147.75 84.75 219.75
1054731 1 150.75 87.75 219.75
1058328 1 141.75 177.75 219.75
1058450 1 147.75 180.75 219.75
1058567 1 138.75 183.75 219.75
1058571 1 150.75 183.75 219.75
1058572 1 153.75 183.75 219.75
1058690 1 147.75 186.75 219.75
1058692 1 153.75 186.75 219.75
1058812 1 153.75 189.75 219.75
1070345 1 192.75 117.75 222.75
1072968 1 141.75 183.75 222.75
1084745 1 192.75 117.75 225.75
1084865 1 192.75 120.75 225.75
2484040 1 119.25 182.25 158.25
2596980 1 179.25 125.25 182.25
2597102 1 185.25 128.25 182.25
2597103 1 188.25 128.25 182.25
2610525 1 134.25 104.25 185.25
2611023 1 188.25 116.25 185.25
2611383 1 188.25 125.25 185.25
2612702 1 185.25 158.25 185.25
2626595 1 104.25 146.25 188.25
2627222 1 185.25 161.25 188.25
2640995 1 104.25 146.25 191.25
2640996 1 107.25 146.25 191.25
2641116 1 107.25 149.25 191.25
2641503 1 188.25 158.25 191.25
2641622 1 185.25 161.25 191.25
2641742 1 185.25 164.25 191.25
2641863 1 188.25 167.25 191.25
2655396 1 107.25 146.25 194.25
2655517 1 110.25 149.25 194.25
2655783 1 188.25 155.25 194.25
2656023 1 188.25 161.25 194.25
2656143 1 188.25 164.25 194.25
2656144 1 191.25 164.25 194.25
2657460 1 179.25 197.25 194.25
2669108 1 203.25 128.25 197.25
2669918 1 113.25 149.25 197.25
2670303 1 188.25 158.25 197.25
2670424 1 191.25 161.25 197.25
2670425 1 194.25 161.25 197.25
2670543 1 188.25 164.25 197.25
2670544 1 191.25 164.25 197.25
2671954 1 101.25 200.25 197.25
2684704 1 191.25 158.25 200.25
2684824 1 191.25 161.25 200.25
2699305 1 74.25 164.25 203.25
2699948 1 203.25 179.25 203.25
2742888 1 143.25 173.25 212.25
2743009 1 146.25 176.25 212.25
2743010 1 149.25 176.25 212.25
2757407 1 140.25 176.25 215.25
2757409 1 146.25 176.25 215.25
2757411 1 152.25 176.25 215.25
2757526 1 137.25 179.25 215.25
2757529 1 146.25 179.25 215.25
2757530 1 149.25 179.25 215.25
2768089 1 146.25 83.25 218.25
2771808 1 143.25 176.25 218.25
2771809 1 146.25 176.25 218.25
2771929 1 146.25 179.25 218.25
2771931 1 152.25 179.25 218.25
2772048 1 143.25 182.25 218.25
2772050 1 149.25 182.25 218.25
2772292 1 155.25 188.25 218.25
2786209 1 146.25 176.25 221.25
2786328 1 143.25 179.25 221.25
2786448 1 143.25 182.25 221.25
2786449 1 146.25 182.25 221.25
2786450 1 149.25 182.25 221.25
2786568 1 143.25 185.25 221.25
2786569 1 146.25 185.25 221.25
2786571 1 152.25 185.25 221.25
2786690 1 149.25 188.25 221.25
2786691 1 152.25 188.25 221.25
2800847 1 140.25 182.25 224.25
2800966 1 137.25 185.25 224.25
2800970 1 149.25 185.25 224.25
2812744 1 191.25 119.25 227.25
