ITEM: TIMESTEP
93303
ITEM: NUMBER OF ATOMS
71
ITEM: BOX BOUNDS pp pp pp
0 360
0 360
0 360
ITEM: ATOMS id type x y z c_myKE c_myPE
2309449 1 143.157 136.77 117.639 0 -6.25448
2353496 1 167.438 155.901 129.165 0 -6.25506
2428506 1 197.394 237.6 145.077 0 -6.25498
2443033 1 221.673 238.827 146.333 0 -6.2538
2470010 1 146.189 192.873 154.791 0 -7.48342
2487313 1 219.592 269.394 157.776 0 -6.54128
2498931 1 149.783 195.992 160.959 0 -7.28013
2501833 1 219.708 272.649 161.034 0 -6.82118
2541540 1 180.184 180.493 168.668 0 -7.26343
2527500 1 178.363 187.768 167.364 0 -8.35149
813899 1 175.241 191.13 167.299 0 -7.92476
2556179 1 176.822 186.648 172.091 0 -8.39711
2570818 1 175.243 191.158 170.497 0 -8.76958
2542138 1 175.277 194.264 170.485 0 -8.59631
2570821 1 178.4 191.137 173.768 0 -8.37455
2513222 1 175.241 194.33 173.629 0 -8.83937
2556779 1 178.383 194.247 173.722 0 -8.83935
2556777 1 175.222 197.441 173.653 0 -8.81866
871858 1 170.515 199.2 175.038 0 -8.45122
2542139 1 175.202 200.572 173.711 0 -8.80135
2571059 1 178.407 194.332 176.825 0 -8.78326
828540 1 181.569 194.252 176.897 0 -8.01191
857339 1 178.389 197.413 176.859 0 -8.78752
2571058 1 175.222 200.639 176.805 0 -8.72224
843060 1 178.364 200.544 176.872 0 -8.51873
843418 1 175.23 203.823 176.796 0 -7.92771
2614381 1 178.408 197.371 180.041 0 -8.03665
871978 1 175.218 200.559 179.993 0 -8.15302
886139 1 178.338 204.004 180.058 0 -6.81847
2613556 1 231.155 178.099 186.49 0 -6.54739
2627957 1 234.411 178.223 189.745 0 -6.82084
2743006 1 135.437 177.122 215.202 0 -6.91933
2743007 1 138.74 176.755 215.241 0 -6.75785
2758518 1 238.868 203.708 218.451 0 -6.25599
2799176 1 165.485 136.752 226.101 0 -6.25399
2816833 1 221.49 223.029 229.238 0 -7.4237
2817180 1 180.256 227.887 229.393 0 -7.04337
2831233 1 221.864 222.984 232.54 0 -7.46939
2831353 1 221.676 226.085 232.481 0 -7.33517
2847312 1 218.455 269.469 237.6 0 -6.25275
2903705 1 196.115 235.634 250.378 0 -6.25719
756411 1 147.931 191.307 156.242 0 -7.24814
756531 1 147.682 194.422 156.394 0 -8.05884
756652 1 151.25 197.686 156.132 0 -6.51132
770931 1 148.01 194.216 159.414 0 -7.44999
771051 1 148.069 197.952 159.385 0 -7.87872
813659 1 175.186 181.649 167.079 0 -6.65504
813780 1 178.39 184.937 167.198 0 -7.99214
828180 1 179.688 183.108 168.85 0 -7.75408
2556060 1 178.386 185.083 170.441 0 -8.0578
814020 1 176.764 189.459 168.996 0 -8.59271
814139 1 173.611 192.611 168.894 0 -7.96461
814377 1 173.547 199.006 169.006 0 -8.00946
828162 1 119.212 183.004 173.454 0 -6.25227
813900 1 176.762 189.579 172.143 0 -8.59391
828539 1 176.819 192.683 172.11 0 -8.82155
2556540 1 173.633 195.879 172.092 0 -8.57369
814138 1 170.403 199.042 172.044 0 -7.95009
828659 1 173.621 199.007 172.097 0 -8.74832
857222 1 179.984 192.676 175.378 0 -8.4432
871741 1 176.811 195.885 175.239 0 -8.84139
843179 1 176.795 198.994 175.26 0 -8.83809
857698 1 173.625 202.223 175.251 0 -8.31035
871859 1 179.997 195.813 178.46 0 -8.39127
975784 1 191.341 280.632 202.163 0 -6.25508
1029407 1 136.981 175.261 216.98 0 -7.04144
1076103 1 186.199 267.87 224.494 0 -6.25274
1074781 1 179.738 230.872 226.509 0 -7.03663
1103233 1 219.965 221.262 230.992 0 -7.10894
1103461 1 178.475 229.757 230.942 0 -6.91274
1117754 1 223.38 224.605 234.071 0 -7.22465
