ITEM: TIMESTEP
84608
ITEM: NUMBER OF ATOMS
129
ITEM: BOX BOUNDS pp pp pp
0 360
0 360
0 360
ITEM: ATOMS id type x y z
397859 1 174.75 225.75 81.75
426662 1 183.75 225.75 87.75
526259 1 174.75 195.75 108.75
596574 1 159.75 153.75 123.75
598150 1 207.75 192.75 123.75
610138 1 171.75 132.75 126.75
626710 1 207.75 186.75 129.75
641352 1 213.75 192.75 132.75
653575 1 162.75 138.75 135.75
653695 1 162.75 141.75 135.75
654177 1 168.75 153.75 135.75
656349 1 204.75 207.75 135.75
668577 1 168.75 153.75 138.75
682373 1 156.75 138.75 141.75
682616 1 165.75 144.75 141.75
682736 1 165.75 147.75 141.75
682974 1 159.75 153.75 141.75
682977 1 168.75 153.75 141.75
683216 1 165.75 159.75 141.75
683455 1 162.75 165.75 141.75
696658 1 171.75 135.75 144.75
696894 1 159.75 141.75 144.75
697013 1 156.75 144.75 144.75
697014 1 159.75 144.75 144.75
697015 1 162.75 144.75 144.75
697018 1 171.75 144.75 144.75
697132 1 153.75 147.75 144.75
697133 1 156.75 147.75 144.75
697134 1 159.75 147.75 144.75
697135 1 162.75 147.75 144.75
697138 1 171.75 147.75 144.75
697255 1 162.75 150.75 144.75
697374 1 159.75 153.75 144.75
697375 1 162.75 153.75 144.75
697377 1 168.75 153.75 144.75
697494 1 159.75 156.75 144.75
697495 1 162.75 156.75 144.75
710818 1 171.75 129.75 147.75
711058 1 171.75 135.75 147.75
711059 1 174.75 135.75 147.75
711178 1 171.75 138.75 147.75
711292 1 153.75 141.75 147.75
711417 1 168.75 144.75 147.75
711418 1 171.75 144.75 147.75
711537 1 168.75 147.75 147.75
711538 1 171.75 147.75 147.75
711657 1 168.75 150.75 147.75
711774 1 159.75 153.75 147.75
711777 1 168.75 153.75 147.75
711780 1 177.75 153.75 147.75
711894 1 159.75 156.75 147.75
711895 1 162.75 156.75 147.75
711900 1 177.75 156.75 147.75
726177 1 168.75 153.75 150.75
739857 1 168.75 135.75 153.75
740453 1 156.75 150.75 153.75
740821 1 180.75 159.75 153.75
755221 1 180.75 159.75 156.75
769257 1 168.75 150.75 159.75
796384 1 189.75 108.75 165.75
810903 1 186.75 111.75 168.75
827094 1 159.75 156.75 171.75
839228 1 201.75 99.75 174.75
2195457 1 170.25 167.25 98.25
2195458 1 173.25 167.25 98.25
2224624 1 191.25 176.25 104.25
2269018 1 173.25 206.25 113.25
2269268 1 203.25 212.25 113.25
2293976 1 167.25 110.25 119.25
2308496 1 167.25 113.25 122.25
2311380 1 179.25 185.25 122.25
2311390 1 209.25 185.25 122.25
2325539 1 176.25 179.25 125.25
2338975 1 164.25 155.25 128.25
2340789 1 206.25 200.25 128.25
2352775 1 164.25 140.25 131.25
2366816 1 167.25 131.25 134.25
2383513 1 218.25 188.25 137.25
2395856 1 167.25 137.25 140.25
2396216 1 167.25 146.25 140.25
2396217 1 170.25 146.25 140.25
2396218 1 173.25 146.25 140.25
2396337 1 170.25 149.25 140.25
2397418 1 173.25 176.25 140.25
2410616 1 167.25 146.25 143.25
2410617 1 170.25 146.25 143.25
2410735 1 164.25 149.25 143.25
2410854 1 161.25 152.25 143.25
2410855 1 164.25 152.25 143.25
2410856 1 167.25 152.25 143.25
2410974 1 161.25 155.25 143.25
2410975 1 164.25 155.25 143.25
2411094 1 161.25 158.25 143.25
2411096 1 167.25 158.25 143.25
2411335 1 164.25 164.25 143.25
2412551 1 212.25 194.25 143.25
2412669 1 206.25 197.25 143.25
2424534 1 161.25 134.25 146.25
2424894 1 161.25 143.25 146.25
2425013 1 158.25 146.25 146.25
2425014 1 161.25 146.25 146.25
2425015 1 164.25 146.25 146.25
2425016 1 167.25 146.25 146.25
2425017 1 170.25 146.25 146.25
2425018 1 173.25 146.25 146.25
2425133 1 158.25 149.25 146.25
2425134 1 161.25 149.25 146.25
2425136 1 167.25 149.25 146.25
2425137 1 170.25 149.25 146.25
2425254 1 161.25 152.25 146.25
2425374 1 161.25 155.25 146.25
2425375 1 164.25 155.25 146.25
2425494 1 161.25 158.25 146.25
2438817 1 170.25 131.25 149.25
2439294 1 161.25 143.25 149.25
2439416 1 167.25 146.25 149.25
2439417 1 170.25 146.25 149.25
2439655 1 164.25 152.25 149.25
2440254 1 161.25 167.25 149.25
2453581 1 182.25 140.25 152.25
2453935 1 164.25 149.25 152.25
2467496 1 167.25 128.25 155.25
2467616 1 167.25 131.25 155.25
2467974 1 161.25 140.25 155.25
2482739 1 176.25 149.25 158.25
2483453 1 158.25 167.25 158.25
2496778 1 173.25 140.25 161.25
2497377 1 170.25 155.25 161.25
2512134 1 161.25 164.25 164.25
