ITEM: TIMESTEP
107000
ITEM: NUMBER OF ATOMS
113
ITEM: BOX BOUNDS pp pp pp
0 360
0 360
0 360
ITEM: ATOMS id type x y z
754847 1 138.75 150.75 156.75
755448 1 141.75 165.75 156.75
785937 1 168.75 207.75 162.75
856863 1 186.75 180.75 177.75
900541 1 180.75 192.75 186.75
930184 1 189.75 213.75 192.75
944807 1 138.75 219.75 195.75
945522 1 123.75 237.75 195.75
945643 1 126.75 240.75 195.75
960042 1 123.75 240.75 198.75
972535 1 162.75 192.75 201.75
972656 1 165.75 195.75 201.75
987055 1 162.75 195.75 204.75
987176 1 165.75 198.75 204.75
987297 1 168.75 201.75 204.75
987416 1 165.75 204.75 204.75
1001455 1 162.75 195.75 207.75
1001574 1 159.75 198.75 207.75
1001575 1 162.75 198.75 207.75
1001695 1 162.75 201.75 207.75
1001696 1 165.75 201.75 207.75
1015975 1 162.75 198.75 210.75
1160933 1 156.75 222.75 240.75
1175213 1 156.75 219.75 243.75
1175332 1 153.75 222.75 243.75
1175333 1 156.75 222.75 243.75
1175452 1 153.75 225.75 243.75
1260303 1 186.75 186.75 261.75
1274583 1 186.75 183.75 264.75
1290639 1 114.75 225.75 267.75
1304928 1 141.75 222.75 270.75
1332783 1 186.75 198.75 276.75
1347182 1 183.75 198.75 279.75
1361343 1 186.75 192.75 282.75
1361582 1 183.75 198.75 282.75
1363863 1 186.75 255.75 282.75
1375623 1 186.75 189.75 285.75
1375744 1 189.75 192.75 285.75
1393116 1 105.75 267.75 288.75
1407636 1 105.75 270.75 291.75
1419646 1 135.75 210.75 294.75
1435100 1 57.75 237.75 297.75
1435220 1 57.75 240.75 297.75
1448565 1 132.75 213.75 300.75
1462462 1 63.75 201.75 303.75
1462583 1 66.75 204.75 303.75
1476982 1 63.75 204.75 306.75
1492614 1 159.75 234.75 309.75
1608022 1 63.75 240.75 333.75
1608143 1 66.75 243.75 333.75
1609341 1 60.75 273.75 333.75
1622543 1 66.75 243.75 336.75
2340647 1 140.25 197.25 128.25
2469048 1 143.25 167.25 155.25
2470489 1 146.25 203.25 155.25
2482847 1 140.25 152.25 158.25
2483451 1 152.25 167.25 158.25
2597929 1 146.25 149.25 182.25
2600091 1 152.25 203.25 182.25
2614490 1 149.25 203.25 185.25
2628540 1 179.25 194.25 188.25
2686014 1 161.25 191.25 200.25
2686135 1 164.25 194.25 200.25
2700414 1 161.25 191.25 203.25
2700533 1 158.25 194.25 203.25
2700534 1 161.25 194.25 203.25
2700535 1 164.25 194.25 203.25
2700655 1 164.25 197.25 203.25
2714934 1 161.25 194.25 206.25
2715055 1 164.25 197.25 206.25
2715175 1 164.25 200.25 206.25
2715176 1 167.25 200.25 206.25
2729693 1 158.25 203.25 209.25
2744923 1 128.25 224.25 212.25
2775058 1 173.25 257.25 218.25
2786806 1 137.25 191.25 221.25
2801207 1 140.25 191.25 224.25
2801326 1 137.25 194.25 224.25
2888931 1 152.25 224.25 242.25
2903213 1 158.25 221.25 245.25
2903332 1 155.25 224.25 245.25
2903452 1 155.25 227.25 245.25
2916524 1 131.25 194.25 248.25
2973400 1 119.25 176.25 260.25
2974598 1 113.25 206.25 260.25
2989014 1 161.25 206.25 263.25
3046502 1 185.25 203.25 275.25
3060901 1 182.25 203.25 278.25
3074942 1 185.25 194.25 281.25
3075061 1 182.25 197.25 281.25
3089462 1 185.25 197.25 284.25
3091137 1 170.25 239.25 284.25
3103742 1 185.25 194.25 287.25
3119801 1 122.25 236.25 290.25
3147645 1 134.25 212.25 296.25
3162164 1 131.25 215.25 299.25
3162165 1 134.25 215.25 299.25
3162881 1 122.25 233.25 299.25
3163100 1 59.25 239.25 299.25
3192619 1 56.25 257.25 305.25
3266050 1 29.25 293.25 320.25
3278307 1 80.25 239.25 323.25
3307103 1 68.25 239.25 329.25
3308291 1 32.25 269.25 329.25
3321502 1 65.25 239.25 332.25
3321623 1 68.25 242.25 332.25
3322571 1 32.25 266.25 332.25
3322690 1 29.25 269.25 332.25
3336142 1 65.25 245.25 335.25
3337089 1 26.25 269.25 335.25
3351488 1 23.25 269.25 338.25
3363866 1 77.25 218.25 341.25
3366020 1 59.25 272.25 341.25
