ITEM: TIMESTEP
89378
ITEM: NUMBER OF ATOMS
81
ITEM: BOX BOUNDS pp pp pp
0 360
0 360
0 360
ITEM: ATOMS id type x y z
740449 1 144.75 150.75 153.75
769494 1 159.75 156.75 159.75
783167 1 138.75 138.75 162.75
812574 1 159.75 153.75 168.75
826622 1 183.75 144.75 171.75
840655 1 162.75 135.75 174.75
840891 1 150.75 141.75 174.75
842088 1 141.75 171.75 174.75
869697 1 168.75 141.75 180.75
884098 1 171.75 141.75 183.75
898258 1 171.75 135.75 186.75
913018 1 171.75 144.75 189.75
913618 1 171.75 159.75 189.75
941337 1 168.75 132.75 195.75
941578 1 171.75 138.75 195.75
955980 1 177.75 138.75 198.75
955982 1 183.75 138.75 198.75
956220 1 177.75 144.75 198.75
956935 1 162.75 162.75 198.75
970259 1 174.75 135.75 201.75
970498 1 171.75 141.75 201.75
970499 1 174.75 141.75 201.75
984659 1 174.75 135.75 204.75
984897 1 168.75 141.75 204.75
984898 1 171.75 141.75 204.75
984899 1 174.75 141.75 204.75
1014181 1 180.75 153.75 210.75
1027267 1 198.75 120.75 213.75
1028581 1 180.75 153.75 213.75
1043340 1 177.75 162.75 216.75
1055825 1 192.75 114.75 219.75
1084982 1 183.75 123.75 225.75
1085099 1 174.75 126.75 225.75
1085588 1 201.75 138.75 225.75
1128298 1 171.75 126.75 234.75
1140169 1 144.75 63.75 237.75
1155051 1 150.75 75.75 240.75
1183124 1 129.75 57.75 246.75
1183244 1 129.75 60.75 246.75
1211444 1 129.75 45.75 252.75
1211685 1 132.75 51.75 252.75
1225963 1 126.75 48.75 255.75
2454767 1 140.25 170.25 152.25
2482729 1 146.25 149.25 158.25
2496420 1 179.25 131.25 161.25
2526046 1 137.25 152.25 167.25
2526412 1 155.25 161.25 167.25
2539859 1 176.25 137.25 170.25
2540223 1 188.25 146.25 170.25
2554261 1 182.25 137.25 173.25
2554262 1 185.25 137.25 173.25
2568183 1 188.25 125.25 176.25
2597333 1 158.25 134.25 182.25
2597579 1 176.25 140.25 182.25
2611737 1 170.25 134.25 185.25
2611740 1 179.25 134.25 185.25
2612218 1 173.25 146.25 185.25
2625899 1 176.25 128.25 188.25
2626137 1 170.25 134.25 188.25
2626255 1 164.25 137.25 188.25
2626501 1 182.25 143.25 188.25
2626857 1 170.25 152.25 188.25
2640777 1 170.25 140.25 191.25
2640896 1 167.25 143.25 191.25
2655059 1 176.25 137.25 194.25
2655179 1 176.25 140.25 194.25
2655180 1 179.25 140.25 194.25
2669700 1 179.25 143.25 197.25
2669937 1 170.25 149.25 197.25
2683977 1 170.25 140.25 200.25
2683978 1 173.25 140.25 200.25
2684100 1 179.25 143.25 200.25
2684220 1 179.25 146.25 200.25
2698377 1 170.25 140.25 203.25
2698378 1 173.25 140.25 203.25
2712777 1 170.25 140.25 206.25
2712778 1 173.25 140.25 206.25
2756458 1 173.25 152.25 215.25
2810565 1 134.25 65.25 227.25
2869014 1 161.25 86.25 239.25
2926008 1 143.25 71.25 251.25
