ITEM: TIMESTEP
96634
ITEM: NUMBER OF ATOMS
108
ITEM: BOX BOUNDS pp pp pp
0 360
0 360
0 360
ITEM: ATOMS id type x y z c_myKE c_myPE
624309 1 206.94 124.042 124.007 0 -6.25481
2439538 1 176.991 143.188 145.073 0 -6.25333
2441222 1 186.58 191.038 148.251 0 -6.25557
2481794 1 226.078 122.805 155.911 0 -6.25474
2554027 1 208.906 129.207 170.523 0 -6.91205
828301 1 184.573 187.924 170.389 0 -6.75561
813903 1 187.88 187.959 170.761 0 -6.924
2581751 1 216.515 100.474 178.225 0 -6.25482
2611502 1 184.619 124.057 184.628 0 -6.81826
2625903 1 187.876 123.923 187.878 0 -6.55967
942545 1 186.468 158.054 189.923 0 -7.248
2612463 1 186.45 154.828 193.11 0 -7.62011
2655905 1 190.937 159.297 194.464 0 -7.70516
957183 1 190.905 164.429 204.008 0 -7.08686
2685183 1 189.686 168.739 202.651 0 -7.16406
985986 1 194.224 167.415 207.301 0 -6.66145
1014663 1 192.929 164.155 213.43 0 -7.98304
2729336 1 167.482 193.026 213.313 0 -7.5321
2742544 1 193.112 164.157 216.733 0 -7.92938
1015737 1 168.599 191.048 215.244 0 -6.91428
2743736 1 165.503 194.145 215.244 0 -6.9185
2755750 1 209.963 132.264 218.397 0 -6.92503
1057626 1 197.569 162.524 218.458 0 -8.4389
2770150 1 210.352 132.282 221.718 0 -6.75393
2785746 1 199.356 157.777 223.033 0 -7.69759
2771105 1 196.054 160.923 222.982 0 -8.70748
1043345 1 197.464 165.591 221.639 0 -7.87258
2771225 1 195.977 160.869 226.103 0 -8.02326
1072388 1 199.062 164.327 226.188 0 -7.78891
2812142 1 184.607 98.5156 229.268 0 -6.25377
2798595 1 227.83 122.743 228.173 0 -7.23172
2798716 1 229.199 126.974 229.327 0 -7.30183
2785508 1 213.408 151.463 228.157 0 -6.56851
2814309 1 208.82 156.088 229.159 0 -6.57774
2814426 1 199.432 161.142 229.343 0 -7.36333
2854755 1 228.031 84.5101 238.844 0 -6.25474
2887133 1 157.858 180.237 247.276 0 -6.83788
2958776 1 165.48 170.626 261.193 0 -6.82063
2973056 1 165.361 167.368 264.451 0 -6.5425
2970081 1 245.222 87.6992 266.303 0 -6.25425
3073133 1 157.973 148.248 286.841 0 -7.06181
1345139 1 176.939 144.959 288.662 0 -7.0374
3044098 1 173.711 141.744 291.992 0 -7.15067
3129536 1 170.591 114.46 299.436 0 -7.86147
3143938 1 173.768 114.367 302.588 0 -7.66114
3144057 1 170.491 117.95 302.689 0 -7.05084
3158218 1 173.817 111.251 305.709 0 -7.76947
2366359 1 242.379 116.066 131.985 0 -6.25474
753419 1 173.452 111.619 154.314 0 -6.82007
757369 1 141.559 216.893 153.062 0 -6.2541
753418 1 172.179 109.694 156.228 0 -6.82007
2482493 1 154.321 141.603 156.324 0 -6.91283
754734 1 157.656 144.787 156.223 0 -6.60211
783412 1 152.945 143.621 160.768 0 -6.57474
2541662 1 186.339 186.178 168.893 0 -7.04803
825909 1 203.988 124.291 172.337 0 -6.64487
840550 1 207.119 127.422 172.027 0 -7.11775
841001 1 116.028 141.576 173.447 0 -6.25439
873653 1 154.321 243.664 179.826 0 -6.25451
882653 1 156.244 100.112 183.014 0 -6.25434
899103 1 191.131 156.268 188.102 0 -7.15556
926363 1 251.947 114.813 192.603 0 -6.82085
942306 1 191.34 152.944 191.242 0 -7.32526
928025 1 192.429 157.175 193.042 0 -8.63797
2627105 1 194.483 156.149 190.963 0 -7.7503
2653990 1 210.161 108.125 195.576 0 -7.05396
940643 1 252.076 111.556 195.856 0 -6.54979
2641382 1 188.065 152.957 194.245 0 -7.67521
2655664 1 191.754 152.888 196.288 0 -7.79073
942424 1 192.753 157.296 195.733 0 -8.42229
2641743 1 188.379 158.547 194.757 0 -7.94662
954790 1 211.584 105.604 198.812 0 -6.76991
940510 1 208.343 108.129 197.399 0 -7.07299
2641264 1 189.844 152.916 198.155 0 -7.9703
2685065 1 192.699 165.905 202.296 0 -6.97655
2755861 1 179.774 133.918 214.938 0 -6.26118
2742663 1 194.628 162.482 215.201 0 -8.05156
1043480 1 240.506 162.691 214.906 0 -6.25523
2771343 1 191.253 165.816 215.167 0 -7.16808
1014306 1 194.554 159.283 218.261 0 -8.0108
1043105 1 194.504 162.42 218.363 0 -8.33888
1042271 1 211.852 134.039 219.95 0 -7.05844
2756586 1 197.642 159.286 221.467 0 -8.20651
2800024 1 194.472 162.513 221.356 0 -8.41143
1056436 1 229.552 127.68 223.095 0 -6.59081
2785505 1 197.647 159.277 224.621 0 -8.22632
1084627 1 200.884 109.688 227.691 0 -6.82088
1070717 1 230.945 125.663 227.631 0 -7.76465
1070837 1 232.828 127.662 226.515 0 -7.69275
1086186 1 197.805 152.991 227.794 0 -6.67363
2814665 1 197.539 165.88 227.882 0 -7.1343
1099147 1 201.027 112.939 230.944 0 -6.55958
1100946 1 197.712 162.691 230.695 0 -7.38542
1087272 1 218.141 181.848 229.604 0 -6.26047
1099396 1 229.42 121.236 232.752 0 -6.6905
1099517 1 232.819 124.465 232.8 0 -7.55269
1144391 1 211.729 170.319 242.382 0 -6.26673
1173533 1 156.084 178.471 248.86 0 -6.54895
1345253 1 156.487 149.768 285.179 0 -6.87045
1330860 1 178.656 146.696 286.978 0 -6.93443
1359653 1 156.204 149.982 288.22 0 -7.03248
1373940 1 176.677 141.51 291.71 0 -6.88641
1373939 1 176.693 144.751 291.273 0 -7.46882
3129775 1 165.801 119.351 300.948 0 -6.72707
1430337 1 169.106 112.847 304.132 0 -8.0305
1416056 1 165.588 116.131 304.203 0 -6.90059
1444739 1 175.409 113.003 307.618 0 -6.57325
3158336 1 169.204 116 307.464 0 -7.08618
