ITEM: TIMESTEP
99000
ITEM: NUMBER OF ATOMS
117
ITEM: BOX BOUNDS pp pp pp
0 360
0 360
0 360
ITEM: ATOMS id type x y z
726040 1 117.75 150.75 150.75
727029 1 204.75 174.75 150.75
741303 1 186.75 171.75 153.75
755816 1 165.75 174.75 156.75
755817 1 168.75 174.75 156.75
769836 1 105.75 165.75 159.75
770098 1 171.75 171.75 159.75
770346 1 195.75 177.75 159.75
770460 1 177.75 180.75 159.75
784379 1 174.75 168.75 162.75
784488 1 141.75 171.75 162.75
784623 1 186.75 174.75 162.75
798536 1 165.75 162.75 165.75
799018 1 171.75 174.75 165.75
799866 1 195.75 195.75 165.75
812823 1 186.75 159.75 168.75
813183 1 186.75 168.75 168.75
813303 1 186.75 171.75 168.75
813423 1 186.75 174.75 168.75
813659 1 174.75 180.75 168.75
813908 1 201.75 186.75 168.75
827328 1 141.75 162.75 171.75
827334 1 159.75 162.75 171.75
827454 1 159.75 165.75 171.75
827694 1 159.75 171.75 171.75
828067 1 198.75 180.75 171.75
828190 1 207.75 183.75 171.75
828310 1 207.75 186.75 171.75
828792 1 213.75 198.75 171.75
841734 1 159.75 162.75 174.75
841981 1 180.75 168.75 174.75
842095 1 162.75 171.75 174.75
842467 1 198.75 180.75 174.75
856269 1 204.75 165.75 177.75
856379 1 174.75 168.75 177.75
856622 1 183.75 174.75 177.75
856989 1 204.75 183.75 177.75
857227 1 198.75 189.75 177.75
870908 1 201.75 171.75 180.75
885181 1 180.75 168.75 183.75
900434 1 219.75 189.75 186.75
942671 1 210.75 165.75 195.75
957673 1 216.75 180.75 198.75
1000395 1 222.75 168.75 207.75
1101323 1 246.75 171.75 228.75
1129775 1 282.75 162.75 234.75
1158814 1 279.75 168.75 240.75
1159020 1 177.75 174.75 240.75
1159174 1 279.75 177.75 240.75
1186777 1 288.75 147.75 246.75
1201177 1 288.75 147.75 249.75
1273060 1 297.75 144.75 264.75
1374821 1 300.75 168.75 285.75
2424997 1 110.25 146.25 146.25
2440008 1 143.25 161.25 149.25
2455149 1 206.25 179.25 152.25
2456953 1 218.25 224.25 152.25
2469058 1 173.25 167.25 155.25
2482857 1 170.25 152.25 158.25
2484435 1 224.25 191.25 158.25
2497979 1 176.25 170.25 161.25
2497982 1 185.25 170.25 161.25
2511663 1 188.25 152.25 164.25
2512741 1 182.25 179.25 164.25
2512742 1 185.25 179.25 164.25
2513109 1 206.25 188.25 164.25
2526414 1 161.25 161.25 167.25
2526426 1 197.25 161.25 167.25
2526534 1 161.25 164.25 167.25
2526658 1 173.25 167.25 167.25
2526778 1 173.25 170.25 167.25
2527151 1 212.25 179.25 167.25
2527999 1 236.25 200.25 167.25
2540202 1 125.25 146.25 170.25
2540583 1 188.25 155.25 170.25
2540693 1 158.25 158.25 170.25
2540932 1 155.25 164.25 170.25
2541173 1 158.25 170.25 170.25
2541181 1 182.25 170.25 170.25
2541182 1 185.25 170.25 170.25
2541293 1 158.25 173.25 170.25
2541427 1 200.25 176.25 170.25
2541546 1 197.25 179.25 170.25
2541547 1 200.25 179.25 170.25
2555454 1 161.25 167.25 173.25
2555579 1 176.25 170.25 173.25
2555582 1 185.25 170.25 173.25
2555821 1 182.25 176.25 173.25
2556064 1 191.25 182.25 173.25
2556067 1 200.25 182.25 173.25
2556187 1 200.25 185.25 173.25
2556307 1 200.25 188.25 173.25
2569733 1 158.25 164.25 176.25
2570711 1 212.25 188.25 176.25
2570718 1 233.25 188.25 176.25
2584381 1 182.25 170.25 179.25
2584507 1 200.25 173.25 179.25
2584859 1 176.25 182.25 179.25
2612947 1 200.25 164.25 185.25
2613182 1 185.25 170.25 185.25
2628066 1 197.25 182.25 188.25
2629873 1 218.25 227.25 188.25
2727799 1 236.25 155.25 209.25
2728176 1 287.25 164.25 209.25
2771492 1 275.25 167.25 218.25
2785271 1 212.25 152.25 221.25
2785654 1 281.25 161.25 221.25
2843339 1 176.25 164.25 233.25
2857739 1 176.25 164.25 236.25
2872165 1 254.25 164.25 239.25
2872416 1 287.25 170.25 239.25
2929771 1 272.25 164.25 251.25
2930010 1 269.25 170.25 251.25
2943931 1 272.25 158.25 254.25
2972370 1 269.25 149.25 260.25
3001532 1 275.25 158.25 266.25
3015938 1 293.25 158.25 269.25
