ITEM: TIMESTEP
95000
ITEM: NUMBER OF ATOMS
113
ITEM: BOX BOUNDS pp pp pp
0 360
0 360
0 360
ITEM: ATOMS id type x y z
798652 1 153.75 165.75 165.75
798891 1 150.75 171.75 165.75
827572 1 153.75 168.75 171.75
841728 1 141.75 162.75 174.75
856496 1 165.75 171.75 177.75
856855 1 162.75 180.75 177.75
870171 1 150.75 153.75 180.75
870773 1 156.75 168.75 180.75
884687 1 138.75 156.75 183.75
885536 1 165.75 177.75 183.75
899097 1 168.75 156.75 186.75
899327 1 138.75 162.75 186.75
899451 1 150.75 165.75 186.75
899567 1 138.75 168.75 186.75
899819 1 174.75 174.75 186.75
914088 1 141.75 171.75 189.75
943126 1 135.75 177.75 195.75
984882 1 123.75 141.75 204.75
985113 1 96.75 147.75 204.75
986792 1 93.75 189.75 204.75
1000017 1 168.75 159.75 207.75
1001431 1 90.75 195.75 207.75
1014266 1 75.75 156.75 210.75
1014776 1 165.75 168.75 210.75
1027832 1 93.75 135.75 213.75
1029173 1 156.75 168.75 213.75
1042739 1 174.75 147.75 216.75
1057589 1 84.75 159.75 219.75
1085320 1 117.75 132.75 225.75
1086289 1 144.75 156.75 225.75
1087604 1 129.75 189.75 225.75
1116287 1 138.75 186.75 231.75
1127931 1 150.75 117.75 234.75
1142571 1 150.75 123.75 237.75
1145430 1 87.75 195.75 237.75
1145801 1 120.75 204.75 237.75
1199576 1 165.75 108.75 249.75
1200298 1 171.75 126.75 249.75
1200299 1 174.75 126.75 249.75
1200300 1 177.75 126.75 249.75
1214576 1 165.75 123.75 252.75
1217798 1 111.75 204.75 252.75
1228738 1 171.75 117.75 255.75
1242175 1 162.75 93.75 258.75
1243496 1 165.75 126.75 258.75
1272660 1 177.75 135.75 264.75
1285737 1 168.75 102.75 267.75
1385107 1 198.75 66.75 288.75
1399748 1 201.75 72.75 291.75
1414139 1 174.75 72.75 294.75
1443183 1 186.75 78.75 300.75
1457225 1 192.75 69.75 303.75
1457466 1 195.75 75.75 303.75
2511651 1 152.25 152.25 164.25
2512130 1 149.25 164.25 164.25
2541290 1 149.25 173.25 170.25
2541291 1 152.25 173.25 170.25
2555697 1 170.25 173.25 173.25
2569736 1 167.25 164.25 176.25
2570336 1 167.25 179.25 176.25
2583766 1 137.25 155.25 179.25
2598048 1 143.25 152.25 182.25
2598406 1 137.25 161.25 182.25
2599018 1 173.25 176.25 182.25
2612565 1 134.25 155.25 185.25
2612813 1 158.25 161.25 185.25
2613770 1 149.25 185.25 185.25
2641496 1 167.25 158.25 191.25
2641726 1 137.25 164.25 191.25
2641846 1 137.25 167.25 191.25
2668727 1 140.25 119.25 197.25
2670531 1 152.25 164.25 197.25
2683952 1 95.25 140.25 200.25
2685652 1 155.25 182.25 200.25
2712768 1 143.25 140.25 206.25
2726427 1 80.25 122.25 209.25
2742146 1 77.25 155.25 212.25
2743709 1 86.25 194.25 212.25
2755703 1 68.25 134.25 215.25
2769867 1 80.25 128.25 218.25
2770461 1 62.25 143.25 218.25
2770466 1 77.25 143.25 218.25
2784987 1 80.25 146.25 221.25
2813672 1 95.25 143.25 227.25
2830116 1 107.25 194.25 230.25
2841531 1 152.25 119.25 233.25
2855931 1 152.25 119.25 236.25
2870450 1 149.25 122.25 239.25
2884969 1 146.25 125.25 242.25
2885095 1 164.25 128.25 242.25
2899138 1 173.25 119.25 245.25
2913778 1 173.25 125.25 248.25
2930793 1 98.25 191.25 251.25
2941735 1 164.25 104.25 254.25
2941976 1 167.25 110.25 254.25
2956733 1 158.25 119.25 257.25
2998977 1 170.25 95.25 266.25
2999097 1 170.25 98.25 266.25
3012650 1 149.25 77.25 269.25
3029215 1 164.25 131.25 272.25
3043497 1 170.25 128.25 275.25
3057305 1 194.25 113.25 278.25
3069895 1 164.25 68.25 281.25
3072537 1 170.25 134.25 281.25
3098706 1 197.25 68.25 287.25
3100984 1 191.25 125.25 287.25
3156425 1 194.25 71.25 299.25
3170106 1 197.25 53.25 302.25
3170706 1 197.25 68.25 302.25
3199625 1 194.25 71.25 308.25
3199626 1 197.25 71.25 308.25
3214387 1 200.25 80.25 311.25
3228063 1 188.25 62.25 314.25
