ITEM: TIMESTEP
96000
ITEM: NUMBER OF ATOMS
93
ITEM: BOX BOUNDS pp pp pp
0 360
0 360
0 360
ITEM: ATOMS id type x y z
812088 1 141.75 141.75 168.75
812209 1 144.75 144.75 168.75
869569 1 144.75 138.75 180.75
869809 1 144.75 144.75 180.75
869810 1 147.75 144.75 180.75
869933 1 156.75 147.75 180.75
870051 1 150.75 150.75 180.75
898608 1 141.75 144.75 186.75
898726 1 135.75 147.75 186.75
898732 1 153.75 147.75 186.75
898733 1 156.75 147.75 186.75
912773 1 156.75 138.75 189.75
913130 1 147.75 147.75 189.75
913132 1 153.75 147.75 189.75
913734 1 159.75 162.75 189.75
927414 1 159.75 144.75 192.75
928135 1 162.75 162.75 192.75
942293 1 156.75 156.75 195.75
942294 1 159.75 156.75 195.75
1172598 1 231.75 153.75 243.75
1201644 1 249.75 159.75 249.75
1216890 1 267.75 180.75 252.75
1230314 1 219.75 156.75 255.75
1230324 1 249.75 156.75 255.75
1244482 1 243.75 150.75 258.75
1244713 1 216.75 156.75 258.75
1244842 1 243.75 159.75 258.75
1245207 1 258.75 168.75 258.75
1272919 1 234.75 141.75 264.75
1273041 1 240.75 144.75 264.75
1273273 1 216.75 150.75 264.75
1273274 1 219.75 150.75 264.75
1273883 1 246.75 165.75 264.75
1273885 1 252.75 165.75 264.75
1302557 1 228.75 162.75 270.75
1345880 1 237.75 165.75 279.75
1360155 1 222.75 162.75 282.75
1360280 1 237.75 165.75 282.75
1360284 1 249.75 165.75 282.75
2482607 1 140.25 146.25 158.25
2540211 1 152.25 146.25 170.25
2568889 1 146.25 143.25 176.25
2568892 1 155.25 143.25 176.25
2569012 1 155.25 146.25 176.25
2569134 1 161.25 149.25 176.25
2569246 1 137.25 152.25 176.25
2569851 1 152.25 167.25 176.25
2582101 1 182.25 113.25 179.25
2582934 1 161.25 134.25 179.25
2583411 1 152.25 146.25 179.25
2583887 1 140.25 158.25 179.25
2597569 1 146.25 140.25 182.25
2597573 1 158.25 140.25 182.25
2598051 1 152.25 152.25 182.25
2611604 1 131.25 131.25 185.25
2626611 1 152.25 146.25 188.25
2626612 1 155.25 146.25 188.25
2626847 1 140.25 152.25 188.25
2639460 1 179.25 107.25 191.25
2641371 1 152.25 155.25 191.25
2641613 1 158.25 161.25 191.25
2655290 1 149.25 143.25 194.25
2655412 1 155.25 146.25 194.25
2668868 1 203.25 122.25 197.25
2670534 1 161.25 164.25 197.25
2684333 1 158.25 149.25 200.25
2698494 1 161.25 143.25 203.25
2711581 1 182.25 110.25 206.25
2871443 1 248.25 146.25 239.25
2915601 1 242.25 170.25 248.25
2929635 1 224.25 161.25 251.25
2929759 1 236.25 164.25 251.25
2943444 1 251.25 146.25 254.25
2943803 1 248.25 155.25 254.25
2957959 1 236.25 149.25 257.25
2957963 1 248.25 149.25 257.25
2958075 1 224.25 152.25 257.25
2958200 1 239.25 155.25 257.25
2958438 1 233.25 161.25 257.25
2958555 1 224.25 164.25 257.25
2972477 1 230.25 152.25 260.25
2972838 1 233.25 161.25 260.25
2986999 1 236.25 155.25 263.25
2987357 1 230.25 164.25 263.25
3000797 1 230.25 140.25 266.25
3001040 1 239.25 146.25 266.25
3030920 1 239.25 173.25 272.25
3044606 1 257.25 155.25 275.25
3044718 1 233.25 158.25 275.25
3059120 1 239.25 158.25 278.25
3073045 1 254.25 146.25 281.25
3088276 1 227.25 167.25 284.25
3117196 1 227.25 170.25 290.25
