ITEM: TIMESTEP
96000
ITEM: NUMBER OF ATOMS
87
ITEM: BOX BOUNDS pp pp pp
0 360
0 360
0 360
ITEM: ATOMS id type x y z c_myKE c_myPE
2323733 1 156.084 130.453 123.07 0.0138801 -6.08865
2467266 1 197.27 119.336 152.666 0.0204288 -6.67254
2497034 1 223.113 145.257 158.988 0.0355221 -5.94275
2497246 1 135.473 149.386 158.657 0.00900693 -7.06126
2511645 1 132.371 149.598 162.127 0.11793 -6.96089
827592 1 215.249 167.65 168.464 0.109484 -6.39972
870181 1 180.011 154.807 183.063 0.0590553 -7.71877
898980 1 177.077 154.814 186.118 0.0608518 -7.65106
2626861 1 183.612 151.698 189.593 0.285402 -7.49842
899219 1 177.146 158.053 189.502 0.0459296 -7.63192
2656160 1 245.481 162.262 194.057 0.0943661 -6.75155
2786235 1 227.867 177.965 222.687 0.280812 -6.11914
2829535 1 162.405 178.165 232.228 0.0812591 -6.39085
2886203 1 251.667 152.808 245.301 0.326809 -7.08404
2900723 1 251.656 156.189 248.572 0.138526 -7.14633
1230776 1 165.495 169.048 257.573 0.184423 -6.79235
2944383 1 186.452 167.846 256.67 0.390374 -7.35176
1216617 1 168.95 171.32 258.134 0.250018 -6.62015
2957452 1 152.839 132.136 260.671 0.136912 -7.75987
2944145 1 191.354 159.356 261.046 0.087969 -7.63046
1245060 1 184.708 165.756 261.032 0.30983 -8.4351
2929742 1 187.964 165.378 261.215 0.00224796 -7.98288
2958783 1 187.761 168.753 260.884 0.421065 -7.25283
2973065 1 191.152 168.78 260.702 0.160118 -7.24332
2972583 1 191.211 159.23 264.469 0.291054 -8.0683
1215906 1 197.227 159.33 264.363 0.0545149 -7.94865
1216262 1 187.857 162.555 264.07 0.321368 -7.87518
1231018 1 181.711 165.675 264.224 0.181633 -8.1277
1245182 1 184.829 165.794 264.285 0.0332348 -8.3479
1245180 1 184.8 168.88 264.309 0.182799 -7.74272
1272652 1 149.416 135.423 267.942 0.0882106 -7.28016
2987342 1 184.752 165.75 267.336 0.066984 -7.90334
3000179 1 177.08 120.841 270.654 0.221103 -7.35684
3014578 1 173.933 120.962 273.637 0.0539933 -6.64022
1319113 1 221.718 221.604 282.35 0.274814 -6.02005
3089929 1 143.256 211.978 289.537 0.0921346 -6.78645
3103841 1 117.848 197.359 292.946 0.251516 -7.17104
3104330 1 146.637 211.963 292.972 0.0689659 -6.50963
3145519 1 240.605 158.152 304.688 0.0233542 -6.38991
3145757 1 234.302 162.758 304.646 0.451669 -6.60857
3201785 1 196.01 122.609 317.15 0.0509317 -6.1592
523867 1 200.823 132.034 103.471 0.11655 -6.32791
669172 1 153.016 167.357 134.538 0.0402609 -6.47843
739387 1 198.656 121.061 150.758 0.104568 -6.73525
769126 1 133.606 144.767 157.394 0.045388 -6.23484
2612459 1 178.557 150.098 184.676 0.092769 -7.52917
2612579 1 178.538 153.16 184.687 0.153519 -8.24054
884581 1 181.673 153.018 184.749 0.0651323 -7.99495
2641259 1 178.413 153.154 187.833 0.00963052 -7.8432
900171 1 147.735 184.957 187.836 0.158659 -6.14309
943037 1 233.068 175.429 195.646 0.165379 -6.07929
986093 1 154.387 170.229 205.274 0.03247 -5.91518
999926 1 261.658 156.198 208.409 0.19193 -6.13412
1000115 1 99.0472 160.727 210.127 0.110661 -6.51958
1143801 1 242.037 153.419 240.349 0.0110856 -7.09329
1216018 1 167.068 166.837 256.115 0.435184 -6.96858
1173296 1 170.238 170.309 255.731 0.106564 -7.28719
2929504 1 192.757 157.658 259.618 0.00258827 -7.61242
2957212 1 152.903 130.209 262.502 0.467215 -8.08464
1229451 1 149.467 133.703 262.598 0.171456 -7.99094
2958066 1 195.906 154.572 262.827 0.139161 -7.64575
1230544 1 192.778 157.761 262.765 0.480238 -8.50025
1244708 1 198.565 157.523 262.69 0.185142 -6.97525
2987223 1 189.6 160.955 262.782 0.184553 -8.28553
1230662 1 186.371 164.161 262.813 0.0130781 -8.35747
2958424 1 189.732 163.868 262.596 0.104126 -7.86054
1230769 1 143.435 168.962 262.571 0.114207 -6.71084
1245290 1 146.439 172.144 262.746 0.204762 -6.12745
1258133 1 154.715 128.428 266.187 0.0350375 -7.71229
2986132 1 156.606 130.397 266.282 0.18095 -7.51296
1258371 1 147.634 135.329 266.09 0.102882 -7.61623
1244706 1 195.855 157.69 266.064 0.305575 -8.17329
1244942 1 189.33 160.847 266.286 0.592568 -7.62347
1245061 1 186.302 164.068 265.878 0.0152258 -8.37096
3016260 1 180.219 167.272 265.609 0.113295 -7.72871
1245063 1 186.39 160.78 269.215 0.0592194 -6.7835
3001503 1 189.393 164.022 269.179 0.16343 -7.93995
1302902 1 183.101 167.456 268.687 0.0157654 -7.271
1277471 1 213.503 259.755 268.504 0.11644 -6.25673
1286818 1 172.546 125.739 272.082 0.0400604 -6.41396
3017718 1 236.168 204.183 278.364 0.166484 -6.26602
1332171 1 148.036 182.837 281.629 0.248677 -6.31476
3086940 1 181.902 129.246 291.639 0.236337 -5.76239
1373341 1 178.444 131.99 291.46 0.115466 -6.38997
1390361 1 116.212 199.15 294.739 0.238436 -6.61936
1404902 1 185.005 204.27 300.289 0.13921 -6.62195
1434788 1 202.247 230.894 305.946 0.145906 -6.01602
