ITEM: TIMESTEP
71229
ITEM: NUMBER OF ATOMS
14
ITEM: BOX BOUNDS pp pp pp
0 240
0 240
0 240
ITEM: ATOMS id type x y z c_myKE c_myPE
706109 1 83.1571 76.7748 91.5334 0 -6.91575
706190 1 86.4976 79.9688 91.4464 0 -6.60967
706200 1 118.237 81.8962 91.4595 0 -6.25393
712589 1 83.1613 79.8751 94.6304 0 -6.90769
220601 1 124.76 107.248 105.344 0 -6.54485
823247 1 142.499 155.248 148.87 0 -6.25337
188834 1 99.4361 119.781 84.6752 0 -7.52066
188913 1 96.1282 123.104 84.6337 0 -6.57028
195233 1 96.128 119.737 87.9984 0 -6.57201
195327 1 138.952 124.953 87.9184 0 -6.25407
219951 1 89.8679 84.7443 100.677 0 -6.8391
219952 1 91.1064 86.6627 102.603 0 -6.82061
232039 1 113.439 56.0258 105.818 0 -6.25346
214040 1 121.598 110.411 105.921 0 -6.54257
