ITEM: TIMESTEP
71283
ITEM: NUMBER OF ATOMS
30
ITEM: BOX BOUNDS pp pp pp
0 240
0 240
0 240
ITEM: ATOMS id type x y z
174514 1 99.75 63.75 81.75
234826 1 75.75 165.75 108.75
258343 1 66.75 87.75 120.75
258424 1 69.75 90.75 120.75
264742 1 63.75 87.75 123.75
264823 1 66.75 90.75 123.75
278595 1 102.75 126.75 129.75
278675 1 102.75 129.75 129.75
278676 1 105.75 129.75 129.75
284993 1 96.75 126.75 132.75
284995 1 102.75 126.75 132.75
291552 1 93.75 132.75 135.75
297722 1 123.75 123.75 138.75
311388 1 81.75 156.75 144.75
311389 1 84.75 156.75 144.75
740441 1 122.25 167.25 107.25
764024 1 71.25 92.25 119.25
776742 1 65.25 89.25 125.25
777071 1 92.25 101.25 125.25
777150 1 89.25 104.25 125.25
777876 1 107.25 131.25 125.25
784275 1 104.25 131.25 128.25
784356 1 107.25 134.25 128.25
790515 1 104.25 125.25 131.25
790594 1 101.25 128.25 131.25
790674 1 101.25 131.25 131.25
796993 1 98.25 128.25 134.25
797072 1 95.25 131.25 134.25
823308 1 83.25 155.25 146.25
886441 1 122.25 122.25 176.25
