ITEM: TIMESTEP
74402
ITEM: NUMBER OF ATOMS
35
ITEM: BOX BOUNDS pp pp pp
0 240
0 240
0 240
ITEM: ATOMS id type x y z
124118 1 111.75 93.75 57.75
130438 1 111.75 90.75 60.75
144036 1 105.75 120.75 66.75
149893 1 156.75 99.75 69.75
157140 1 57.75 132.75 72.75
163149 1 84.75 117.75 75.75
195244 1 129.75 120.75 90.75
207085 1 132.75 84.75 96.75
226132 1 153.75 78.75 105.75
259233 1 96.75 120.75 120.75
265632 1 93.75 120.75 123.75
265713 1 96.75 123.75 123.75
284044 1 129.75 90.75 132.75
284124 1 129.75 93.75 132.75
290445 1 132.75 90.75 135.75
290523 1 126.75 93.75 135.75
354519 1 114.75 93.75 165.75
635959 1 116.25 89.25 59.25
636117 1 110.25 95.25 59.25
642437 1 110.25 92.25 62.25
642518 1 113.25 95.25 62.25
731730 1 149.25 80.25 104.25
731811 1 152.25 83.25 104.25
738131 1 152.25 80.25 107.25
746024 1 71.25 137.25 110.25
752425 1 74.25 137.25 113.25
771233 1 98.25 122.25 122.25
795965 1 134.25 89.25 134.25
796044 1 131.25 92.25 134.25
802365 1 134.25 89.25 137.25
802444 1 131.25 92.25 137.25
802445 1 134.25 92.25 137.25
802446 1 137.25 92.25 137.25
802525 1 134.25 95.25 137.25
808845 1 134.25 92.25 140.25
