ITEM: TIMESTEP
79197
ITEM: NUMBER OF ATOMS
37
ITEM: BOX BOUNDS pp pp pp
0 240
0 240
0 240
ITEM: ATOMS id type x y z
220593 1 96.75 111.75 102.75
232673 1 96.75 84.75 108.75
233075 1 102.75 99.75 108.75
246037 1 108.75 105.75 114.75
258674 1 99.75 99.75 120.75
265072 1 93.75 99.75 123.75
265718 1 111.75 123.75 123.75
284272 1 93.75 99.75 132.75
291400 1 117.75 126.75 135.75
303313 1 96.75 93.75 141.75
341710 1 87.75 93.75 159.75
367151 1 90.75 87.75 171.75
419062 1 63.75 114.75 195.75
424509 1 84.75 78.75 198.75
425139 1 54.75 102.75 198.75
437388 1 81.75 81.75 204.75
444350 1 87.75 102.75 207.75
456354 1 99.75 72.75 213.75
456586 1 75.75 81.75 213.75
719712 1 95.25 110.25 98.25
719792 1 95.25 113.25 98.25
725713 1 98.25 95.25 101.25
731792 1 95.25 83.25 104.25
738993 1 98.25 113.25 107.25
744997 1 110.25 98.25 110.25
763956 1 107.25 89.25 119.25
764513 1 98.25 110.25 119.25
796111 1 92.25 95.25 134.25
872750 1 89.25 89.25 170.25
931060 1 59.25 116.25 197.25
949071 1 92.25 71.25 206.25
961871 1 92.25 71.25 212.25
968106 1 77.25 65.25 215.25
968752 1 95.25 89.25 215.25
981070 1 89.25 71.25 221.25
987548 1 83.25 74.25 224.25
987628 1 83.25 77.25 224.25
