ITEM: TIMESTEP
75000
ITEM: NUMBER OF ATOMS
39
ITEM: BOX BOUNDS pp pp pp
0 240
0 240
0 240
ITEM: ATOMS id type x y z
213878 1 111.75 99.75 99.75
240647 1 18.75 144.75 111.75
258666 1 75.75 99.75 120.75
260119 1 114.75 153.75 120.75
260351 1 90.75 162.75 120.75
285946 1 75.75 162.75 132.75
292426 1 75.75 165.75 135.75
315952 1 93.75 87.75 147.75
316916 1 105.75 123.75 147.75
316996 1 105.75 126.75 147.75
323396 1 105.75 126.75 150.75
368124 1 129.75 123.75 171.75
368203 1 126.75 126.75 171.75
374041 1 120.75 105.75 174.75
374523 1 126.75 123.75 174.75
374602 1 123.75 126.75 174.75
380922 1 123.75 123.75 177.75
387651 1 150.75 135.75 180.75
393971 1 150.75 132.75 183.75
394052 1 153.75 135.75 183.75
413469 1 84.75 144.75 192.75
424603 1 126.75 81.75 198.75
705859 1 56.25 71.25 92.25
719398 1 113.25 98.25 98.25
725718 1 113.25 95.25 101.25
725797 1 110.25 98.25 101.25
732199 1 116.25 98.25 104.25
732278 1 113.25 101.25 104.25
739084 1 131.25 116.25 107.25
746584 1 71.25 158.25 110.25
746735 1 44.25 164.25 110.25
752430 1 89.25 137.25 113.25
753064 1 71.25 161.25 113.25
758910 1 89.25 140.25 116.25
809626 1 77.25 122.25 140.25
816027 1 80.25 122.25 143.25
822516 1 107.25 125.25 146.25
886694 1 161.25 131.25 176.25
905971 1 152.25 134.25 185.25
