ITEM: TIMESTEP
74000
ITEM: NUMBER OF ATOMS
21
ITEM: BOX BOUNDS pp pp pp
0 240
0 240
0 240
ITEM: ATOMS id type x y z
180373 1 156.75 42.75 84.75
186934 1 159.75 48.75 87.75
188210 1 147.75 96.75 87.75
200848 1 141.75 90.75 93.75
201074 1 99.75 99.75 93.75
213973 1 156.75 102.75 99.75
226291 1 150.75 84.75 105.75
226765 1 132.75 102.75 105.75
227007 1 138.75 111.75 105.75
239893 1 156.75 114.75 111.75
647738 1 173.25 50.25 65.25
660535 1 164.25 50.25 71.25
666855 1 164.25 47.25 74.25
712764 1 131.25 89.25 95.25
712765 1 134.25 89.25 95.25
713316 1 107.25 110.25 95.25
719639 1 116.25 107.25 98.25
732438 1 113.25 107.25 104.25
732850 1 149.25 122.25 104.25
777337 1 170.25 110.25 125.25
789895 1 164.25 101.25 131.25
