ITEM: TIMESTEP
76391
ITEM: NUMBER OF ATOMS
34
ITEM: BOX BOUNDS pp pp pp
0 240
0 240
0 240
ITEM: ATOMS id type x y z
208032 1 93.75 120.75 96.75
219866 1 75.75 84.75 102.75
220192 1 93.75 96.75 102.75
228194 1 99.75 156.75 105.75
232749 1 84.75 87.75 108.75
232756 1 105.75 87.75 108.75
232988 1 81.75 96.75 108.75
233227 1 78.75 105.75 108.75
239393 1 96.75 96.75 111.75
239562 1 123.75 102.75 111.75
245793 1 96.75 96.75 114.75
245875 1 102.75 99.75 114.75
251710 1 87.75 78.75 117.75
251948 1 81.75 87.75 117.75
258353 1 96.75 87.75 120.75
264995 1 102.75 96.75 123.75
272292 1 153.75 129.75 126.75
323491 1 150.75 129.75 150.75
719394 1 101.25 98.25 98.25
719950 1 89.25 119.25 98.25
732350 1 89.25 104.25 104.25
733791 1 92.25 158.25 104.25
744513 1 98.25 80.25 110.25
751554 1 101.25 104.25 113.25
753073 1 98.25 161.25 113.25
757875 1 104.25 101.25 116.25
764030 1 89.25 92.25 119.25
777008 1 143.25 98.25 125.25
777072 1 95.25 101.25 125.25
777472 1 95.25 116.25 125.25
777651 1 152.25 122.25 125.25
783402 1 125.25 98.25 128.25
790203 1 128.25 113.25 131.25
796284 1 131.25 101.25 134.25
