ITEM: TIMESTEP
74587
ITEM: NUMBER OF ATOMS
34
ITEM: BOX BOUNDS pp pp pp
0 240
0 240
0 240
ITEM: ATOMS id type x y z
194762 1 123.75 102.75 90.75
194842 1 123.75 105.75 90.75
195395 1 102.75 126.75 90.75
200920 1 117.75 93.75 93.75
207394 1 99.75 96.75 96.75
207483 1 126.75 99.75 96.75
207722 1 123.75 108.75 96.75
208120 1 117.75 123.75 96.75
213717 1 108.75 93.75 99.75
214042 1 123.75 105.75 99.75
214204 1 129.75 111.75 99.75
226841 1 120.75 105.75 105.75
226927 1 138.75 108.75 105.75
227080 1 117.75 114.75 105.75
233175 1 162.75 102.75 108.75
233405 1 132.75 111.75 108.75
246603 1 126.75 126.75 114.75
258764 1 129.75 102.75 120.75
259093 1 156.75 114.75 120.75
700841 1 122.25 122.25 89.25
707481 1 122.25 131.25 92.25
718775 1 164.25 74.25 98.25
719722 1 125.25 110.25 98.25
719799 1 116.25 113.25 98.25
738680 1 119.25 101.25 107.25
738921 1 122.25 110.25 107.25
745254 1 161.25 107.25 110.25
745255 1 164.25 107.25 110.25
745334 1 161.25 110.25 110.25
745415 1 164.25 113.25 110.25
750520 1 119.25 65.25 113.25
757976 1 167.25 104.25 116.25
758213 1 158.25 113.25 116.25
770600 1 119.25 98.25 122.25
