ITEM: TIMESTEP
77208
ITEM: NUMBER OF ATOMS
43
ITEM: BOX BOUNDS pp pp pp
0 240
0 240
0 240
ITEM: ATOMS id type x y z
163490 1 147.75 129.75 75.75
169889 1 144.75 129.75 78.75
169970 1 147.75 132.75 78.75
227401 1 120.75 126.75 105.75
245886 1 135.75 99.75 114.75
246355 1 102.75 117.75 114.75
252366 1 135.75 102.75 117.75
252515 1 102.75 108.75 117.75
258104 1 69.75 78.75 120.75
258835 1 102.75 105.75 120.75
258914 1 99.75 108.75 120.75
264423 1 66.75 75.75 123.75
277622 1 63.75 90.75 129.75
277703 1 66.75 93.75 129.75
283634 1 99.75 75.75 132.75
291007 1 138.75 111.75 135.75
296679 1 114.75 84.75 138.75
297407 1 138.75 111.75 138.75
303647 1 138.75 105.75 141.75
328611 1 150.75 81.75 153.75
342364 1 129.75 117.75 159.75
392835 1 102.75 90.75 183.75
444433 1 96.75 105.75 207.75
444512 1 93.75 108.75 207.75
643808 1 143.25 143.25 62.25
700686 1 137.25 116.25 89.25
705951 1 92.25 74.25 92.25
707087 1 140.25 116.25 92.25
707166 1 137.25 119.25 92.25
712271 1 92.25 71.25 95.25
739320 1 119.25 125.25 107.25
739321 1 122.25 125.25 107.25
751954 1 101.25 119.25 113.25
769943 1 68.25 74.25 122.25
770023 1 68.25 77.25 122.25
790745 1 74.25 134.25 131.25
795633 1 98.25 77.25 134.25
795884 1 131.25 86.25 134.25
803007 1 140.25 113.25 137.25
834268 1 83.25 86.25 152.25
847963 1 128.25 119.25 158.25
899865 1 74.25 146.25 182.25
1008184 1 71.25 128.25 233.25
