ITEM: TIMESTEP
74218
ITEM: NUMBER OF ATOMS
44
ITEM: BOX BOUNDS pp pp pp
0 240
0 240
0 240
ITEM: ATOMS id type x y z
182112 1 93.75 108.75 84.75
182359 1 114.75 117.75 84.75
201150 1 87.75 102.75 93.75
201478 1 111.75 114.75 93.75
214034 1 99.75 105.75 99.75
233320 1 117.75 108.75 108.75
239560 1 117.75 102.75 111.75
239957 1 108.75 117.75 111.75
245876 1 105.75 99.75 114.75
251966 1 135.75 87.75 117.75
252121 1 120.75 93.75 117.75
252520 1 117.75 108.75 117.75
253072 1 93.75 129.75 117.75
258359 1 114.75 87.75 120.75
258521 1 120.75 93.75 120.75
264924 1 129.75 93.75 123.75
264925 1 132.75 93.75 123.75
265160 1 117.75 102.75 123.75
291725 1 132.75 138.75 135.75
323473 1 96.75 129.75 150.75
323555 1 102.75 132.75 150.75
342347 1 78.75 117.75 159.75
688115 1 104.25 125.25 83.25
706595 1 104.25 98.25 92.25
706993 1 98.25 113.25 92.25
731652 1 155.25 77.25 104.25
732597 1 110.25 113.25 104.25
732599 1 116.25 113.25 104.25
738771 1 152.25 104.25 107.25
745006 1 137.25 98.25 110.25
751158 1 113.25 89.25 113.25
751402 1 125.25 98.25 113.25
757799 1 116.25 98.25 116.25
764039 1 116.25 92.25 119.25
764122 1 125.25 95.25 119.25
764275 1 104.25 101.25 119.25
776921 1 122.25 95.25 125.25
783317 1 110.25 95.25 128.25
783318 1 113.25 95.25 128.25
783559 1 116.25 104.25 128.25
789642 1 125.25 92.25 131.25
789879 1 116.25 101.25 131.25
796279 1 116.25 101.25 134.25
828670 1 89.25 116.25 149.25
