ITEM: TIMESTEP
79000
ITEM: NUMBER OF ATOMS
34
ITEM: BOX BOUNDS pp pp pp
0 240
0 240
0 240
ITEM: ATOMS id type x y z
213866 1 75.75 99.75 99.75
213875 1 102.75 99.75 99.75
220828 1 81.75 120.75 102.75
227229 1 84.75 120.75 105.75
227308 1 81.75 123.75 105.75
227310 1 87.75 123.75 105.75
233628 1 81.75 120.75 108.75
233630 1 87.75 120.75 108.75
233709 1 84.75 123.75 108.75
264352 1 93.75 72.75 123.75
265461 1 60.75 114.75 123.75
271941 1 60.75 117.75 126.75
272040 1 117.75 120.75 126.75
289391 1 90.75 51.75 135.75
367939 1 54.75 117.75 171.75
405865 1 72.75 99.75 189.75
463158 1 111.75 87.75 216.75
469559 1 114.75 87.75 219.75
476039 1 114.75 90.75 222.75
714838 1 113.25 167.25 95.25
752030 1 89.25 122.25 113.25
752109 1 86.25 125.25 113.25
752188 1 83.25 128.25 113.25
789945 1 74.25 104.25 131.25
802269 1 86.25 86.25 137.25
816116 1 107.25 125.25 143.25
886026 1 77.25 107.25 176.25
918118 1 113.25 110.25 191.25
956593 1 98.25 113.25 209.25
956672 1 95.25 116.25 209.25
962992 1 95.25 113.25 212.25
963073 1 98.25 116.25 212.25
975078 1 113.25 86.25 218.25
975158 1 113.25 89.25 218.25
