ITEM: TIMESTEP
76272
ITEM: NUMBER OF ATOMS
15
ITEM: BOX BOUNDS pp pp pp
0 240
0 240
0 240
ITEM: ATOMS id type x y z
143245 1 132.75 90.75 66.75
200276 1 105.75 69.75 93.75
315644 1 129.75 75.75 147.75
315723 1 126.75 78.75 147.75
322043 1 126.75 75.75 150.75
329229 1 84.75 105.75 153.75
687714 1 101.25 110.25 83.25
705795 1 104.25 68.25 92.25
777719 1 116.25 125.25 125.25
789243 1 128.25 77.25 131.25
796998 1 113.25 128.25 134.25
809088 1 143.25 101.25 140.25
809089 1 146.25 101.25 140.25
810435 1 104.25 152.25 140.25
854190 1 89.25 113.25 161.25
