ITEM: TIMESTEP
76000
ITEM: NUMBER OF ATOMS
33
ITEM: BOX BOUNDS pp pp pp
0 240
0 240
0 240
ITEM: ATOMS id type x y z
195552 1 93.75 132.75 90.75
195553 1 96.75 132.75 90.75
196183 1 66.75 156.75 90.75
207393 1 96.75 96.75 96.75
208193 1 96.75 126.75 96.75
208272 1 93.75 129.75 96.75
208511 1 90.75 138.75 96.75
214675 1 102.75 129.75 99.75
214909 1 84.75 138.75 99.75
221156 1 105.75 132.75 102.75
226997 1 108.75 111.75 105.75
227314 1 99.75 123.75 105.75
227714 1 99.75 138.75 105.75
227793 1 96.75 141.75 105.75
234134 1 159.75 138.75 108.75
246782 1 183.75 132.75 114.75
707627 1 80.25 137.25 92.25
707710 1 89.25 140.25 92.25
713718 1 113.25 125.25 95.25
713798 1 113.25 128.25 95.25
713951 1 92.25 134.25 95.25
714502 1 65.25 155.25 95.25
719797 1 110.25 113.25 98.25
720277 1 110.25 131.25 98.25
720351 1 92.25 134.25 98.25
720622 1 185.25 143.25 98.25
726593 1 98.25 128.25 101.25
726828 1 83.25 137.25 101.25
726909 1 86.25 140.25 101.25
732994 1 101.25 128.25 104.25
733074 1 101.25 131.25 104.25
739580 1 179.25 134.25 107.25
790849 1 146.25 137.25 131.25
