ITEM: TIMESTEP
76332
ITEM: NUMBER OF ATOMS
18
ITEM: BOX BOUNDS pp pp pp
0 240
0 240
0 240
ITEM: ATOMS id type x y z
246285 1 132.75 114.75 114.75
252521 1 120.75 108.75 117.75
258921 1 120.75 108.75 120.75
258990 1 87.75 111.75 120.75
264918 1 111.75 93.75 123.75
271962 1 123.75 117.75 126.75
303715 1 102.75 108.75 141.75
316517 1 108.75 108.75 147.75
328521 1 120.75 78.75 153.75
745235 1 104.25 107.25 110.25
752269 1 86.25 131.25 113.25
757949 1 86.25 104.25 116.25
764357 1 110.25 104.25 119.25
770842 1 125.25 107.25 122.25
783795 1 104.25 113.25 128.25
783959 1 116.25 119.25 128.25
802276 1 107.25 86.25 137.25
808912 1 95.25 95.25 140.25
