ITEM: TIMESTEP
83216
ITEM: NUMBER OF ATOMS
46
ITEM: BOX BOUNDS pp pp pp
0 240
0 240
0 240
ITEM: ATOMS id type x y z
220358 1 111.75 102.75 102.75
220601 1 120.75 111.75 102.75
246835 1 102.75 135.75 114.75
252916 1 105.75 123.75 117.75
259637 1 108.75 135.75 120.75
265238 1 111.75 105.75 123.75
265721 1 120.75 123.75 123.75
265954 1 99.75 132.75 123.75
265968 1 141.75 132.75 123.75
278529 1 144.75 123.75 129.75
285090 1 147.75 129.75 132.75
336454 1 159.75 135.75 156.75
355741 1 180.75 138.75 165.75
362132 1 153.75 138.75 168.75
368456 1 165.75 135.75 171.75
376223 1 186.75 186.75 174.75
394216 1 165.75 141.75 183.75
395103 1 186.75 174.75 183.75
408060 1 177.75 180.75 189.75
408144 1 189.75 183.75 189.75
434066 1 195.75 195.75 201.75
447034 1 219.75 201.75 207.75
719393 1 98.25 98.25 98.25
725797 1 110.25 98.25 101.25
738680 1 119.25 101.25 107.25
757637 1 110.25 92.25 116.25
758044 1 131.25 107.25 116.25
758756 1 107.25 134.25 116.25
758996 1 107.25 143.25 116.25
765167 1 140.25 134.25 119.25
771554 1 101.25 134.25 122.25
784278 1 113.25 131.25 128.25
784514 1 101.25 140.25 128.25
841736 1 167.25 125.25 155.25
841895 1 164.25 131.25 155.25
848374 1 161.25 134.25 158.25
861177 1 170.25 134.25 164.25
861253 1 158.25 137.25 164.25
861338 1 173.25 140.25 164.25
867736 1 167.25 140.25 167.25
874139 1 176.25 140.25 170.25
900624 1 191.25 173.25 182.25
919748 1 203.25 170.25 191.25
945266 1 197.25 167.25 203.25
945822 1 185.25 188.25 203.25
958544 1 191.25 185.25 209.25
