ITEM: TIMESTEP
79000
ITEM: NUMBER OF ATOMS
33
ITEM: BOX BOUNDS pp pp pp
0 240
0 240
0 240
ITEM: ATOMS id type x y z
193719 1 114.75 63.75 90.75
258841 1 120.75 105.75 120.75
264359 1 114.75 72.75 123.75
265161 1 120.75 102.75 123.75
272268 1 81.75 129.75 126.75
278667 1 78.75 129.75 129.75
296190 1 87.75 66.75 138.75
296994 1 99.75 96.75 138.75
329556 1 105.75 117.75 153.75
341112 1 213.75 69.75 159.75
355216 1 45.75 120.75 165.75
355244 1 129.75 120.75 165.75
361645 1 132.75 120.75 168.75
367309 1 84.75 93.75 171.75
367390 1 87.75 96.75 171.75
393584 1 189.75 117.75 183.75
399020 1 177.75 81.75 186.75
400775 1 162.75 147.75 186.75
425504 1 189.75 114.75 198.75
425583 1 186.75 117.75 198.75
444375 1 162.75 102.75 207.75
450855 1 162.75 105.75 210.75
692917 1 110.25 65.25 86.25
699318 1 113.25 65.25 89.25
744610 1 149.25 83.25 110.25
776600 1 119.25 83.25 125.25
788820 1 59.25 62.25 131.25
821056 1 47.25 71.25 146.25
828175 1 44.25 98.25 149.25
854124 1 131.25 110.25 161.25
884908 1 83.25 65.25 176.25
905503 1 188.25 116.25 185.25
956294 1 161.25 101.25 209.25
