ITEM: TIMESTEP
79000
ITEM: NUMBER OF ATOMS
33
ITEM: BOX BOUNDS pp pp pp
0 240
0 240
0 240
ITEM: ATOMS id type x y z
239393 1 96.75 96.75 111.75
252192 1 93.75 96.75 117.75
284192 1 93.75 96.75 132.75
290508 1 81.75 93.75 135.75
297073 1 96.75 99.75 138.75
303385 1 72.75 96.75 141.75
316185 1 72.75 96.75 147.75
328832 1 93.75 90.75 153.75
328987 1 78.75 96.75 153.75
354936 1 165.75 108.75 165.75
387020 1 177.75 111.75 180.75
406138 1 171.75 108.75 189.75
406459 1 174.75 120.75 189.75
412780 1 177.75 117.75 192.75
751552 1 95.25 104.25 113.25
764193 1 98.25 98.25 119.25
796110 1 89.25 95.25 134.25
796200 1 119.25 98.25 134.25
808906 1 77.25 95.25 140.25
808990 1 89.25 98.25 140.25
815390 1 89.25 98.25 143.25
821634 1 101.25 92.25 146.25
822029 1 86.25 107.25 146.25
822128 1 143.25 110.25 146.25
828189 1 86.25 98.25 149.25
834844 1 131.25 107.25 152.25
886212 1 155.25 113.25 176.25
892693 1 158.25 116.25 179.25
898859 1 176.25 107.25 182.25
905416 1 167.25 113.25 185.25
911501 1 182.25 101.25 188.25
924616 1 167.25 113.25 194.25
931097 1 170.25 116.25 197.25
