ITEM: TIMESTEP
73306
ITEM: NUMBER OF ATOMS
48
ITEM: BOX BOUNDS pp pp pp
0 240
0 240
0 240
ITEM: ATOMS id type x y z
65097 1 168.75 39.75 30.75
162766 1 135.75 102.75 75.75
162767 1 138.75 102.75 75.75
162847 1 138.75 105.75 75.75
169086 1 135.75 99.75 78.75
169166 1 135.75 102.75 78.75
169167 1 138.75 102.75 78.75
174783 1 186.75 72.75 81.75
175485 1 132.75 99.75 81.75
175566 1 135.75 102.75 81.75
182044 1 129.75 105.75 84.75
182124 1 129.75 108.75 84.75
227315 1 102.75 123.75 105.75
354921 1 120.75 108.75 165.75
360113 1 96.75 63.75 168.75
379477 1 108.75 69.75 177.75
381162 1 123.75 132.75 177.75
418765 1 132.75 102.75 195.75
424674 1 99.75 84.75 198.75
425160 1 117.75 102.75 198.75
456847 1 138.75 90.75 213.75
463248 1 141.75 90.75 216.75
661968 1 143.25 104.25 71.25
668288 1 143.25 101.25 74.25
668367 1 140.25 104.25 74.25
668448 1 143.25 107.25 74.25
674687 1 140.25 101.25 77.25
674765 1 134.25 104.25 77.25
681164 1 131.25 104.25 80.25
681165 1 134.25 104.25 80.25
681245 1 134.25 107.25 80.25
694043 1 128.25 107.25 86.25
731887 1 140.25 86.25 104.25
782917 1 110.25 80.25 128.25
783149 1 86.25 89.25 128.25
788990 1 89.25 68.25 131.25
790113 1 98.25 110.25 131.25
790194 1 101.25 113.25 131.25
796593 1 98.25 113.25 134.25
827796 1 107.25 83.25 149.25
910602 1 125.25 68.25 188.25
910681 1 122.25 71.25 188.25
917001 1 122.25 68.25 191.25
917082 1 125.25 71.25 191.25
924359 1 116.25 104.25 194.25
930679 1 116.25 101.25 197.25
930758 1 113.25 104.25 197.25
1006849 1 146.25 77.25 233.25
