ITEM: TIMESTEP
74000
ITEM: NUMBER OF ATOMS
33
ITEM: BOX BOUNDS pp pp pp
0 240
0 240
0 240
ITEM: ATOMS id type x y z c_myKE c_myPE
713319 1 117.016 108.799 94.8979 0.0528292 -6.65159
719719 1 116.9 111.843 98.2239 0.0962233 -6.69803
214200 1 118.274 113.85 99.2976 0.346238 -6.96903
732599 1 114.998 113.81 102.308 0.141292 -7.39112
809392 1 94.031 111.876 136.816 0.196421 -6.50475
815469 1 91.3292 108.026 143.477 0.351272 -6.41926
310192 1 92.6322 113.538 143.928 0.148334 -8.06428
310275 1 98.4709 115.462 144.121 0.0992129 -7.58754
310673 1 91.358 121.065 142.497 0.100366 -6.91846
809393 1 94.4342 113.731 145.718 0.475729 -7.99719
317078 1 110.339 132.908 150.304 0.239041 -6.77221
311394 1 97.7851 158.271 148.931 0.129093 -6.32895
868104 1 69.102 156.81 171.279 0.0870038 -5.04178
931056 1 41.9594 115.09 202.974 0.126242 -6.48936
931137 1 45.0785 118.171 203.133 0.00485978 -6.91028
220600 1 116.537 112.047 100.973 0.115411 -6.99818
220680 1 116.612 115.657 100.767 0.51295 -7.59335
257708 1 80.1288 59.1388 121.756 0.026228 -5.94767
764761 1 121.71 118.951 121.871 0.247096 -6.93505
771241 1 125.768 122.908 121.638 0.0868208 -6.44006
265642 1 123.096 121.589 125.16 0.0255177 -7.43992
303792 1 92.5866 111.985 138.762 0.328393 -7.60846
297393 1 94.8199 109.86 142.54 0.112351 -7.30511
303872 1 90.5033 113.458 142.228 0.0372583 -7.97109
304113 1 96.379 118.838 142.142 0.0483409 -7.60614
815873 1 92.8531 118.882 145.93 0.0548257 -7.91272
316514 1 96.4696 113.634 147.892 0.24985 -7.03556
822274 1 92.7746 116.924 147.769 0.0967367 -7.64638
323557 1 106.838 132.526 153.681 0.0826841 -7.57164
841957 1 109.037 134.514 154.802 0.251479 -7.34118
330200 1 116.732 144.011 156.697 0.330517 -6.83869
336748 1 78.27 148.508 158.145 0.0134998 -6.33318
355792 1 93.2573 143.81 167.957 0.167972 -5.97891
