ITEM: TIMESTEP
74169
ITEM: NUMBER OF ATOMS
36
ITEM: BOX BOUNDS pp pp pp
0 240
0 240
0 240
ITEM: ATOMS id type x y z
138293 1 156.75 144.75 63.75
143559 1 114.75 102.75 66.75
156750 1 87.75 117.75 72.75
164120 1 117.75 153.75 75.75
183478 1 111.75 159.75 84.75
189798 1 111.75 156.75 87.75
238757 1 108.75 72.75 111.75
246666 1 75.75 129.75 114.75
265012 1 153.75 96.75 123.75
290437 1 108.75 90.75 135.75
296838 1 111.75 90.75 138.75
309319 1 114.75 78.75 144.75
315719 1 114.75 78.75 147.75
315720 1 117.75 78.75 147.75
322040 1 117.75 75.75 150.75
322042 1 123.75 75.75 150.75
329305 1 72.75 108.75 153.75
329386 1 75.75 111.75 153.75
335785 1 72.75 111.75 156.75
630746 1 77.25 134.25 56.25
663404 1 131.25 158.25 71.25
669004 1 131.25 128.25 74.25
669085 1 134.25 131.25 74.25
675405 1 134.25 128.25 77.25
795957 1 110.25 89.25 134.25
808678 1 113.25 86.25 140.25
808757 1 110.25 89.25 140.25
821319 1 116.25 80.25 146.25
827639 1 116.25 77.25 149.25
827640 1 119.25 77.25 149.25
827720 1 119.25 80.25 149.25
827721 1 122.25 80.25 149.25
827800 1 119.25 83.25 149.25
834120 1 119.25 80.25 152.25
839228 1 83.25 32.25 155.25
903331 1 152.25 35.25 185.25
