ITEM: TIMESTEP
78000
ITEM: NUMBER OF ATOMS
35
ITEM: BOX BOUNDS pp pp pp
0 240
0 240
0 240
ITEM: ATOMS id type x y z c_myKE c_myPE
705478 1 111.895 53.1079 89.4837 0.418767 -7.03156
706591 1 91.4016 96.1255 89.7479 0.0902794 -6.75472
719305 1 72.5376 94.5149 97.7129 0.178849 -6.19957
215146 1 72.3705 152.511 98.8878 0.22296 -6.37892
231400 1 117.997 30.9418 105.161 0.287031 -6.53486
737485 1 136.064 53.383 107.619 0.125799 -7.12359
232048 1 140.243 57.4322 108.656 0.0711055 -6.61715
768693 1 159.45 19.3459 121.397 0.303425 -6.70217
252508 1 79.9231 108.783 120.152 0.0145121 -6.28578
770450 1 152.195 91.1761 123.281 0.352353 -5.78632
781503 1 191.172 19.6897 130.476 0.142823 -6.51031
789033 1 223.586 66.139 133.076 0.348185 -6.74129
807175 1 165.968 21.3309 142.587 0.188937 -7.50083
822193 1 97.7543 112.063 147.107 0.109794 -7.00796
815872 1 94.5548 115.027 146.733 0.126608 -6.72401
877660 1 184.205 26.0584 177.464 0.034193 -6.06579
890307 1 206.209 18.883 182.119 0.201055 -6.33047
162428 1 78.9108 90.0325 75.2904 0.0702111 -6.17383
175948 1 77.3279 118.607 80.3504 0.155186 -6.50045
182348 1 80.4203 121.705 81.5906 0.14156 -7.0946
687868 1 80.2621 119.874 83.5247 0.265626 -7.6838
182428 1 78.6085 121.966 83.3819 0.288032 -7.07783
193240 1 118.583 41.7604 88.0883 0.0872991 -5.78131
707470 1 86.1792 132.302 87.9946 0.19844 -5.69392
221882 1 124.969 163.391 100.73 0.0701725 -5.85787
225570 1 148.586 53.0949 103.94 0.322742 -6.818
231971 1 151.78 53.0195 107.155 0.0546017 -6.9893
237559 1 113.457 23.1281 110.173 0.163703 -6.56424
238372 1 154.898 52.9852 110.344 0.0810704 -6.365
284825 1 71.076 119.749 132.772 0.0396366 -5.86991
288616 1 167.601 16.5055 137.83 0.345354 -6.66593
794214 1 164.713 19.544 137.651 0.214247 -6.354
800697 1 169.39 17.9348 142.153 0.0691918 -7.38271
304443 1 128.131 137.793 144.357 0.16134 -6.57867
822192 1 94.4689 112.123 150.446 0.0486333 -6.52111
