ITEM: TIMESTEP
79214
ITEM: NUMBER OF ATOMS
44
ITEM: BOX BOUNDS pp pp pp
0 240
0 240
0 240
ITEM: ATOMS id type x y z
207393 1 96.75 96.75 96.75
252212 1 153.75 96.75 117.75
252374 1 159.75 102.75 117.75
265008 1 141.75 96.75 123.75
265310 1 87.75 108.75 123.75
265389 1 84.75 111.75 123.75
271627 1 78.75 105.75 126.75
277890 1 147.75 99.75 129.75
277891 1 150.75 99.75 129.75
277966 1 135.75 102.75 129.75
284131 1 150.75 93.75 132.75
284203 1 126.75 96.75 132.75
284374 1 159.75 102.75 132.75
290609 1 144.75 96.75 135.75
290610 1 147.75 96.75 135.75
290769 1 144.75 102.75 135.75
297165 1 132.75 102.75 138.75
297169 1 144.75 102.75 138.75
297249 1 144.75 105.75 138.75
297412 1 153.75 111.75 138.75
297414 1 159.75 111.75 138.75
303404 1 129.75 96.75 141.75
316290 1 147.75 99.75 147.75
322779 1 174.75 102.75 150.75
400209 1 144.75 126.75 186.75
719393 1 98.25 98.25 98.25
745258 1 173.25 107.25 110.25
758287 1 140.25 116.25 116.25
764712 1 215.25 116.25 119.25
770745 1 74.25 104.25 122.25
770912 1 95.25 110.25 122.25
777004 1 131.25 98.25 125.25
777168 1 143.25 104.25 125.25
783729 1 146.25 110.25 128.25
790051 1 152.25 107.25 131.25
790131 1 152.25 110.25 131.25
802523 1 128.25 95.25 137.25
802530 1 149.25 95.25 137.25
809007 1 140.25 98.25 140.25
809409 1 146.25 113.25 140.25
815489 1 146.25 101.25 143.25
815572 1 155.25 104.25 143.25
827969 1 146.25 89.25 149.25
828531 1 152.25 110.25 149.25
