ITEM: TIMESTEP
73000
ITEM: NUMBER OF ATOMS
30
ITEM: BOX BOUNDS pp pp pp
0 240
0 240
0 240
ITEM: ATOMS id type x y z
182360 1 117.75 117.75 84.75
195080 1 117.75 114.75 90.75
200679 1 114.75 84.75 93.75
207798 1 111.75 111.75 96.75
214035 1 102.75 105.75 99.75
220041 1 120.75 90.75 102.75
220201 1 120.75 96.75 102.75
220599 1 114.75 111.75 102.75
226999 1 114.75 111.75 105.75
253641 1 120.75 150.75 117.75
260035 1 102.75 150.75 120.75
266356 1 105.75 147.75 123.75
266523 1 126.75 153.75 123.75
291641 1 120.75 135.75 135.75
310682 1 123.75 129.75 144.75
316515 1 102.75 108.75 147.75
700760 1 119.25 119.25 89.25
706677 1 110.25 101.25 92.25
713319 1 116.25 110.25 95.25
719557 1 110.25 104.25 98.25
719637 1 110.25 107.25 98.25
725878 1 113.25 101.25 101.25
732120 1 119.25 95.25 104.25
732439 1 116.25 107.25 104.25
738676 1 107.25 101.25 107.25
753078 1 113.25 161.25 113.25
759078 1 113.25 146.25 116.25
759157 1 110.25 149.25 116.25
772199 1 116.25 158.25 122.25
834915 1 104.25 110.25 152.25
