ITEM: TIMESTEP
71000
ITEM: NUMBER OF ATOMS
34
ITEM: BOX BOUNDS pp pp pp
0 240
0 240
0 240
ITEM: ATOMS id type x y z
214436 1 105.75 120.75 99.75
226915 1 102.75 108.75 105.75
227074 1 99.75 114.75 105.75
239550 1 87.75 102.75 111.75
245953 1 96.75 102.75 114.75
246034 1 99.75 105.75 114.75
246115 1 102.75 108.75 114.75
258754 1 99.75 102.75 120.75
290117 1 108.75 78.75 135.75
310042 1 123.75 105.75 144.75
310280 1 117.75 114.75 144.75
322918 1 111.75 108.75 150.75
328913 1 96.75 93.75 153.75
334759 1 114.75 72.75 156.75
335560 1 117.75 102.75 156.75
354117 1 108.75 78.75 165.75
744991 1 92.25 98.25 110.25
745073 1 98.25 101.25 110.25
745230 1 89.25 107.25 110.25
751473 1 98.25 101.25 113.25
751548 1 83.25 104.25 113.25
751553 1 98.25 104.25 113.25
757879 1 116.25 101.25 116.25
776993 1 98.25 98.25 125.25
809003 1 128.25 98.25 140.25
840512 1 95.25 80.25 155.25
840515 1 104.25 80.25 155.25
840833 1 98.25 92.25 155.25
840843 1 128.25 92.25 155.25
847003 1 128.25 83.25 158.25
853316 1 107.25 80.25 161.25
853317 1 110.25 80.25 161.25
853553 1 98.25 89.25 161.25
859635 1 104.25 77.25 164.25
