ITEM: TIMESTEP
76000
ITEM: NUMBER OF ATOMS
30
ITEM: BOX BOUNDS pp pp pp
0 240
0 240
0 240
ITEM: ATOMS id type x y z c_myKE c_myPE
649555 1 104.55 121.67 59.3238 0.198633 -6.51268
726287 1 140.474 114.619 102.33 0.6709 -6.14245
726686 1 137.416 127.693 102.581 0.0698356 -6.96
739164 1 129.713 120.322 104.263 0.0101067 -7.31542
240204 1 134.127 124.743 105.581 0.163904 -7.70476
745804 1 137.442 124.731 105.597 0.0797776 -7.40703
233885 1 134.163 127.589 105.589 0.00574444 -7.00135
233644 1 134.109 121.506 108.778 0.179326 -7.34294
245396 1 101.114 78.7565 115.445 0.291004 -6.58455
758207 1 142.648 112.01 115.151 0.34738 -7.69568
252527 1 140.4 110.429 116.984 0.0504022 -6.69158
277711 1 88.2559 89.6835 129.574 0.347767 -5.79274
803060 1 56.0666 117.016 140.558 0.0469537 -5.35416
810435 1 101.7 151.762 140.604 0.0927317 -5.79053
828772 1 158.339 120.337 152.088 0.123546 -7.02891
330507 1 70.4754 156.248 156.61 0.183815 -5.64945
848518 1 111.948 140.321 159.564 0.0472891 -6.82198
163888 1 142.295 145.499 73.9391 0.2309 -6.6169
701497 1 172.713 148.279 85.179 0.284779 -5.51712
201155 1 102.965 100.486 91.0675 0.141724 -6.9016
207306 1 71.8553 91.155 94.1871 0.123425 -6.58917
201803 1 127.978 128.154 92.9889 0.0731959 -6.70469
208363 1 132.463 132.66 94.3662 0.214292 -6.86751
221005 1 134.394 124.722 102.555 0.0433756 -8.11304
227407 1 139.14 126.131 103.746 0.200984 -7.22538
745725 1 135.739 122.988 106.968 0.0564908 -7.61571
228608 1 143.988 173.664 105.933 0.206175 -6.48556
771149 1 80.1456 118.424 116.581 0.094327 -6.28514
259227 1 78.402 119.693 118.457 0.130078 -6.79143
835805 1 132.567 145.28 153.677 0.143592 -6.56055
