ITEM: TIMESTEP
73000
ITEM: NUMBER OF ATOMS
15
ITEM: BOX BOUNDS pp pp pp
0 240
0 240
0 240
ITEM: ATOMS id type x y z
207716 1 105.75 108.75 96.75
207726 1 135.75 108.75 96.75
226277 1 108.75 84.75 105.75
232757 1 108.75 87.75 108.75
252041 1 120.75 90.75 117.75
259159 1 114.75 117.75 120.75
277629 1 84.75 90.75 129.75
700435 1 104.25 107.25 89.25
713164 1 131.25 104.25 95.25
713318 1 113.25 110.25 95.25
719564 1 131.25 104.25 98.25
726041 1 122.25 107.25 101.25
732519 1 116.25 110.25 104.25
776676 1 107.25 86.25 125.25
776997 1 110.25 98.25 125.25
