ITEM: TIMESTEP
75000
ITEM: NUMBER OF ATOMS
23
ITEM: BOX BOUNDS pp pp pp
0 240
0 240
0 240
ITEM: ATOMS id type x y z
176121 1 120.75 123.75 81.75
187414 1 159.75 66.75 87.75
207393 1 96.75 96.75 96.75
208029 1 84.75 120.75 96.75
213253 1 156.75 75.75 99.75
221080 1 117.75 129.75 102.75
226839 1 114.75 105.75 105.75
227483 1 126.75 129.75 105.75
227731 1 150.75 138.75 105.75
233552 1 93.75 117.75 108.75
234118 1 111.75 138.75 108.75
246351 1 90.75 117.75 114.75
246354 1 99.75 117.75 114.75
246603 1 126.75 126.75 114.75
707080 1 119.25 116.25 92.25
713408 1 143.25 113.25 95.25
719393 1 98.25 98.25 98.25
726754 1 101.25 134.25 101.25
732209 1 146.25 98.25 104.25
732591 1 92.25 113.25 104.25
732753 1 98.25 119.25 104.25
744052 1 155.25 62.25 110.25
745804 1 131.25 128.25 110.25
