ITEM: TIMESTEP
72236
ITEM: NUMBER OF ATOMS
24
ITEM: BOX BOUNDS pp pp pp
0 240
0 240
0 240
ITEM: ATOMS id type x y z
137085 1 132.75 99.75 63.75
175400 1 117.75 96.75 81.75
175561 1 120.75 102.75 81.75
200842 1 123.75 90.75 93.75
200843 1 126.75 90.75 93.75
201485 1 132.75 114.75 93.75
214436 1 105.75 120.75 99.75
220203 1 126.75 96.75 102.75
220361 1 120.75 102.75 102.75
220596 1 105.75 111.75 102.75
220676 1 105.75 114.75 102.75
232997 1 108.75 96.75 108.75
233318 1 111.75 108.75 108.75
252682 1 123.75 114.75 117.75
271551 1 90.75 102.75 126.75
686925 1 134.25 80.25 83.25
700119 1 116.25 95.25 89.25
700197 1 110.25 98.25 89.25
713156 1 107.25 104.25 95.25
719402 1 125.25 98.25 98.25
719476 1 107.25 101.25 98.25
738995 1 104.25 113.25 107.25
757967 1 140.25 104.25 116.25
795639 1 116.25 77.25 134.25
