ITEM: TIMESTEP
73000
ITEM: NUMBER OF ATOMS
28
ITEM: BOX BOUNDS pp pp pp
0 240
0 240
0 240
ITEM: ATOMS id type x y z
207393 1 96.75 96.75 96.75
252123 1 126.75 93.75 117.75
265326 1 135.75 108.75 123.75
265876 1 105.75 129.75 123.75
284041 1 120.75 90.75 132.75
284361 1 120.75 102.75 132.75
284524 1 129.75 108.75 132.75
291248 1 141.75 120.75 135.75
297868 1 81.75 129.75 138.75
303242 1 123.75 90.75 141.75
316760 1 117.75 117.75 147.75
317308 1 81.75 138.75 147.75
328842 1 123.75 90.75 153.75
336445 1 132.75 135.75 156.75
783317 1 110.25 95.25 128.25
789558 1 113.25 89.25 131.25
789559 1 116.25 89.25 131.25
789799 1 116.25 98.25 131.25
789880 1 119.25 101.25 131.25
796042 1 125.25 92.25 134.25
796202 1 125.25 98.25 134.25
796280 1 119.25 101.25 134.25
816268 1 83.25 131.25 143.25
829079 1 116.25 131.25 149.25
835241 1 122.25 122.25 152.25
848127 1 140.25 125.25 158.25
848284 1 131.25 131.25 158.25
854764 1 131.25 134.25 161.25
