ITEM: TIMESTEP
78000
ITEM: NUMBER OF ATOMS
21
ITEM: BOX BOUNDS pp pp pp
0 240
0 240
0 240
ITEM: ATOMS id type x y z c_myKE c_myPE
675090 1 152.208 115.059 75.5991 0.0500603 -6.69641
720209 1 147.282 127.638 93.0259 0.198604 -5.74825
731638 1 111.761 73.7639 102.25 0.098713 -6.82595
745257 1 169.337 107.443 110.437 0.264966 -6.20747
784111 1 89.3791 124.64 129.623 0.276244 -6.80759
791191 1 219.273 149.732 133.083 0.0769311 -6.93916
796767 1 142.399 118.532 136.079 0.236433 -6.22845
797511 1 218.921 146.828 136.149 0.0577337 -7.17282
809084 1 132.948 99.1872 142.389 0.0291681 -6.48735
834039 1 114.678 75.6653 155.439 0.0798717 -6.39682
834680 1 120.523 101.056 155.051 0.00766353 -7.39175
834933 1 159.694 108.856 155.209 0.236028 -6.31186
847322 1 126.284 94.6189 161.476 0.231561 -6.62172
259571 1 153.628 132.448 121.754 0.0936296 -6.17348
316200 1 118.672 96.3569 150.428 0.217663 -7.04694
317260 1 182.464 135.733 150.499 0.0516962 -6.36722
329001 1 121.738 96.1976 156.655 0.0923634 -6.6891
329082 1 124.974 99.4264 156.826 0.590382 -7.04638
335321 1 122.059 93.2312 160.141 0.287555 -7.09771
335402 1 124.718 96.2508 160.044 0.0384501 -7.39944
336857 1 172.718 151.963 159.926 0.128413 -6.00066
