ITEM: TIMESTEP
75000
ITEM: NUMBER OF ATOMS
46
ITEM: BOX BOUNDS pp pp pp
0 240
0 240
0 240
ITEM: ATOMS id type x y z
220041 1 120.75 90.75 102.75
220675 1 102.75 114.75 102.75
226443 1 126.75 90.75 105.75
226685 1 132.75 99.75 105.75
226686 1 135.75 99.75 105.75
232843 1 126.75 90.75 108.75
233068 1 81.75 99.75 108.75
233160 1 117.75 102.75 108.75
239483 1 126.75 99.75 111.75
239790 1 87.75 111.75 111.75
239873 1 96.75 114.75 111.75
239953 1 96.75 117.75 111.75
245483 1 126.75 84.75 114.75
251883 1 126.75 84.75 117.75
252187 1 78.75 96.75 117.75
257946 1 75.75 72.75 120.75
269790 1 87.75 36.75 126.75
283305 1 72.75 63.75 132.75
308585 1 72.75 51.75 144.75
315146 1 75.75 57.75 147.75
315387 1 78.75 66.75 147.75
328026 1 75.75 60.75 153.75
328187 1 78.75 66.75 153.75
328508 1 81.75 78.75 153.75
334506 1 75.75 63.75 156.75
334587 1 78.75 66.75 156.75
340422 1 63.75 45.75 159.75
340425 1 72.75 45.75 159.75
712913 1 98.25 95.25 95.25
738203 1 128.25 83.25 107.25
745158 1 113.25 104.25 110.25
751401 1 122.25 98.25 113.25
751792 1 95.25 113.25 113.25
757404 1 131.25 83.25 116.25
763958 1 113.25 89.25 119.25
769462 1 65.25 56.25 122.25
770830 1 89.25 107.25 122.25
781304 1 71.25 20.25 128.25
781949 1 86.25 44.25 128.25
814264 1 71.25 56.25 143.25
814829 1 86.25 77.25 143.25
814909 1 86.25 80.25 143.25
821469 1 86.25 86.25 146.25
827628 1 83.25 77.25 149.25
833783 1 68.25 68.25 152.25
840027 1 80.25 62.25 155.25
