ITEM: TIMESTEP
76354
ITEM: NUMBER OF ATOMS
31
ITEM: BOX BOUNDS pp pp pp
0 240
0 240
0 240
ITEM: ATOMS id type x y z
207635 1 102.75 105.75 96.75
220434 1 99.75 105.75 102.75
239472 1 93.75 99.75 111.75
252115 1 102.75 93.75 117.75
271720 1 117.75 108.75 126.75
291571 1 150.75 132.75 135.75
310121 1 120.75 108.75 144.75
316360 1 117.75 102.75 147.75
316436 1 105.75 105.75 147.75
316680 1 117.75 114.75 147.75
316685 1 132.75 114.75 147.75
316839 1 114.75 120.75 147.75
323233 1 96.75 120.75 150.75
335719 1 114.75 108.75 156.75
342124 1 129.75 108.75 159.75
373958 1 111.75 102.75 174.75
706519 1 116.25 95.25 92.25
745072 1 95.25 101.25 110.25
758195 1 104.25 113.25 116.25
764518 1 113.25 110.25 119.25
783635 1 104.25 107.25 128.25
790690 1 149.25 131.25 131.25
809398 1 113.25 113.25 140.25
815326 1 137.25 95.25 143.25
815795 1 104.25 113.25 143.25
815799 1 116.25 113.25 143.25
815957 1 110.25 119.25 143.25
822193 1 98.25 113.25 146.25
834760 1 119.25 104.25 152.25
834837 1 110.25 107.25 152.25
846774 1 161.25 74.25 158.25
