ITEM: TIMESTEP
70486
ITEM: NUMBER OF ATOMS
24
ITEM: BOX BOUNDS pp pp pp
0 240
0 240
0 240
ITEM: ATOMS id type x y z
181960 1 117.75 102.75 84.75
194759 1 114.75 102.75 90.75
194999 1 114.75 111.75 90.75
195082 1 123.75 114.75 90.75
201400 1 117.75 111.75 93.75
201476 1 105.75 114.75 93.75
201480 1 117.75 114.75 93.75
201565 1 132.75 117.75 93.75
207878 1 111.75 114.75 96.75
207958 1 111.75 117.75 96.75
214284 1 129.75 114.75 99.75
220515 1 102.75 108.75 102.75
220676 1 105.75 114.75 102.75
220759 1 114.75 117.75 102.75
221157 1 108.75 132.75 102.75
681000 1 119.25 98.25 80.25
687073 1 98.25 86.25 83.25
687645 1 134.25 107.25 83.25
706923 1 128.25 110.25 92.25
720117 1 110.25 125.25 98.25
726274 1 101.25 116.25 101.25
726516 1 107.25 125.25 101.25
738840 1 119.25 107.25 107.25
739400 1 119.25 128.25 107.25
