ITEM: TIMESTEP
76000
ITEM: NUMBER OF ATOMS
15
ITEM: BOX BOUNDS pp pp pp
0 240
0 240
0 240
ITEM: ATOMS id type x y z c_myKE c_myPE
649482 1 126.626 114.823 60.5769 0.149153 -6.51353
699867 1 76.9873 85.3352 88.2297 0.134225 -6.23478
720207 1 137.431 126.303 94.6369 0.257304 -6.48702
234286 1 137.36 143.878 101.452 0.286102 -6.44555
227647 1 136.077 134.077 107.634 0.0508821 -6.8281
252051 1 152.497 89.8887 115.169 0.334858 -6.94812
757729 1 148.669 94.9361 115.078 0.0734024 -6.77824
112834 1 99.5466 153.702 48.7315 0.207652 -6.4112
163390 1 84.9794 128.344 74.1003 0.0156462 -6.76184
176287 1 138.979 131.141 80.0101 0.116683 -5.92248
208047 1 142.229 121.786 93.0945 0.125976 -7.05257
203486 1 137.517 195.429 92.8796 0.0867977 -6.49373
757571 1 154.557 88.1697 113.728 0.0399595 -6.59181
770369 1 147.516 90.1298 119.823 0.113664 -6.28454
278043 1 126.38 103.78 131.625 0.0406434 -6.4499
