ITEM: TIMESTEP
73176
ITEM: NUMBER OF ATOMS
13
ITEM: BOX BOUNDS pp pp pp
0 240
0 240
0 240
ITEM: ATOMS id type x y z
226516 1 105.75 93.75 105.75
251959 1 114.75 87.75 117.75
304202 1 123.75 126.75 141.75
310918 1 111.75 138.75 144.75
329315 1 102.75 108.75 153.75
348915 1 102.75 123.75 162.75
738435 1 104.25 92.25 107.25
766198 1 113.25 173.25 119.25
771159 1 116.25 119.25 122.25
772517 1 110.25 170.25 122.25
797079 1 116.25 131.25 134.25
822997 1 110.25 143.25 146.25
835317 1 110.25 125.25 152.25
