ITEM: TIMESTEP
76000
ITEM: NUMBER OF ATOMS
31
ITEM: BOX BOUNDS pp pp pp
0 240
0 240
0 240
ITEM: ATOMS id type x y z c_myKE c_myPE
738351 1 89.4023 86.1709 105.388 0.0457298 -7.2555
750675 1 104.667 67.1915 108.763 0.231201 -5.64689
764759 1 120.141 118.359 119.936 0.064208 -6.57418
771894 1 164.766 146.872 123.263 0.194479 -6.20295
790915 1 102.793 140.652 130.832 0.0125038 -6.12691
796588 1 82.0611 112.119 134.016 0.190261 -7.19067
796589 1 85.1341 111.779 134.229 0.141908 -7.34385
803080 1 120.074 110.565 137.583 0.420458 -5.98694
297482 1 123.128 113.776 137.51 0.160443 -6.43211
797146 1 73.6173 135.935 136.288 0.169276 -7.35333
802454 1 164.509 91.7754 139.36 0.189417 -6.59066
815721 1 119.954 113.591 140.55 0.497623 -6.61623
841882 1 126.588 132.702 156.472 0.00562898 -7.26171
892363 1 129.708 104.311 181.98 0.54653 -6.76969
989634 1 98.8825 155.419 229.829 0.0267187 -6.21578
156621 1 183.568 112.241 70.4203 0.197245 -5.78304
226283 1 126.196 81.6507 103.955 0.198125 -6.31796
738927 1 138.083 112.14 103.807 0.295895 -6.77957
227005 1 135.704 115.324 104.167 0.0854644 -5.79682
227263 1 191.875 121.961 104.081 0.139031 -5.75463
744756 1 105.474 89.9098 108.82 0.0210309 -5.70785
265481 1 123.292 115.517 120.002 0.0449434 -8.77214
278747 1 74.0238 134.64 131.692 0.116578 -6.69415
290910 1 86.5637 107.338 135.858 0.360692 -6.09891
290989 1 83.3983 110.344 135.905 0.0357349 -7.69902
790747 1 77.2459 135.801 134.163 0.404257 -7.22809
285227 1 75.4288 137.753 134.361 0.206838 -7.35564
316749 1 83.6547 115.222 150.741 0.0575019 -6.48123
329721 1 122.156 128.093 154.56 0.0389948 -6.3701
329882 1 124.826 131.365 154.873 0.107232 -7.17248
368752 1 90.938 150.767 175.887 0.014975 -7.76769
