ITEM: TIMESTEP
72000
ITEM: NUMBER OF ATOMS
22
ITEM: BOX BOUNDS pp pp pp
0 240
0 240
0 240
ITEM: ATOMS id type x y z
252278 1 111.75 99.75 117.75
258676 1 105.75 99.75 120.75
264357 1 108.75 72.75 123.75
264918 1 111.75 93.75 123.75
265150 1 87.75 102.75 123.75
265480 1 117.75 114.75 123.75
277801 1 120.75 96.75 129.75
290199 1 114.75 81.75 135.75
725713 1 98.25 95.25 101.25
744996 1 107.25 98.25 110.25
758199 1 116.25 113.25 116.25
758275 1 104.25 116.25 116.25
770835 1 104.25 107.25 122.25
771391 1 92.25 128.25 122.25
771392 1 95.25 128.25 122.25
777001 1 122.25 98.25 125.25
777235 1 104.25 107.25 125.25
783393 1 98.25 98.25 128.25
789878 1 113.25 101.25 131.25
795957 1 110.25 89.25 134.25
802036 1 107.25 77.25 137.25
802440 1 119.25 92.25 137.25
