ITEM: TIMESTEP
79147
ITEM: NUMBER OF ATOMS
30
ITEM: BOX BOUNDS pp pp pp
0 240
0 240
0 240
ITEM: ATOMS id type x y z
182127 1 138.75 108.75 84.75
214681 1 120.75 129.75 99.75
226993 1 96.75 111.75 105.75
233392 1 93.75 111.75 108.75
329644 1 129.75 120.75 153.75
329806 1 135.75 126.75 153.75
336045 1 132.75 120.75 156.75
341568 1 141.75 87.75 159.75
367555 1 102.75 102.75 171.75
367634 1 99.75 105.75 171.75
367717 1 108.75 108.75 171.75
398778 1 171.75 72.75 186.75
405098 1 171.75 69.75 189.75
405177 1 168.75 72.75 189.75
412368 1 141.75 102.75 192.75
412369 1 144.75 102.75 192.75
412448 1 141.75 105.75 192.75
418689 1 144.75 99.75 195.75
431171 1 150.75 87.75 201.75
437570 1 147.75 87.75 204.75
745960 1 119.25 134.25 110.25
835244 1 131.25 122.25 152.25
841645 1 134.25 122.25 155.25
846996 1 107.25 83.25 158.25
847088 1 143.25 86.25 158.25
865879 1 116.25 71.25 167.25
879636 1 107.25 107.25 173.25
917967 1 140.25 104.25 191.25
924288 1 143.25 101.25 194.25
924369 1 146.25 104.25 194.25
