ITEM: TIMESTEP
75218
ITEM: NUMBER OF ATOMS
21
ITEM: BOX BOUNDS pp pp pp
0 240
0 240
0 240
ITEM: ATOMS id type x y z
207393 1 96.75 96.75 96.75
221636 1 105.75 150.75 102.75
246358 1 111.75 117.75 114.75
246361 1 120.75 117.75 114.75
247158 1 111.75 147.75 114.75
260123 1 126.75 153.75 120.75
272520 1 117.75 138.75 126.75
272910 1 87.75 153.75 126.75
687801 1 122.25 113.25 83.25
720518 1 113.25 140.25 98.25
720519 1 116.25 140.25 98.25
726522 1 125.25 125.25 101.25
751882 1 125.25 116.25 113.25
751959 1 116.25 119.25 113.25
764678 1 113.25 116.25 119.25
765315 1 104.25 140.25 119.25
765961 1 122.25 164.25 119.25
771322 1 125.25 125.25 122.25
784599 1 116.25 143.25 128.25
790761 1 122.25 134.25 131.25
828755 1 104.25 119.25 149.25
