ITEM: TIMESTEP
76000
ITEM: NUMBER OF ATOMS
45
ITEM: BOX BOUNDS pp pp pp
0 240
0 240
0 240
ITEM: ATOMS id type x y z
98607 1 138.75 96.75 45.75
104603 1 126.75 81.75 48.75
104924 1 129.75 93.75 48.75
111166 1 135.75 87.75 51.75
149802 1 123.75 96.75 69.75
169403 1 126.75 111.75 78.75
182361 1 120.75 117.75 84.75
188843 1 126.75 120.75 87.75
194920 1 117.75 108.75 90.75
195079 1 114.75 114.75 90.75
207879 1 114.75 114.75 96.75
207959 1 114.75 117.75 96.75
254124 1 129.75 168.75 117.75
259403 1 126.75 126.75 120.75
259483 1 126.75 129.75 120.75
266124 1 129.75 138.75 123.75
298207 1 138.75 141.75 138.75
298608 1 141.75 156.75 138.75
304044 1 129.75 120.75 141.75
323885 1 132.75 144.75 150.75
330212 1 153.75 141.75 153.75
603964 1 131.25 89.25 44.25
610843 1 128.25 107.25 47.25
629325 1 134.25 80.25 56.25
642523 1 128.25 95.25 62.25
687643 1 128.25 107.25 83.25
706842 1 125.25 107.25 92.25
726278 1 113.25 116.25 101.25
732595 1 104.25 113.25 104.25
745637 1 110.25 122.25 110.25
771480 1 119.25 131.25 122.25
771886 1 137.25 146.25 122.25
784439 1 116.25 137.25 128.25
784443 1 128.25 137.25 128.25
784444 1 131.25 137.25 128.25
803564 1 131.25 134.25 137.25
803806 1 137.25 143.25 137.25
804131 1 152.25 155.25 137.25
817010 1 149.25 158.25 143.25
823406 1 137.25 158.25 146.25
823646 1 137.25 167.25 146.25
835804 1 131.25 143.25 152.25
848532 1 155.25 140.25 158.25
854847 1 140.25 137.25 161.25
855250 1 149.25 152.25 161.25
