ITEM: TIMESTEP
77450
ITEM: NUMBER OF ATOMS
32
ITEM: BOX BOUNDS pp pp pp
0 240
0 240
0 240
ITEM: ATOMS id type x y z
177420 1 177.75 171.75 81.75
183245 1 132.75 150.75 84.75
183816 1 165.75 171.75 84.75
188763 1 126.75 117.75 87.75
188920 1 117.75 123.75 87.75
189728 1 141.75 153.75 87.75
194996 1 105.75 111.75 90.75
195396 1 105.75 126.75 90.75
201400 1 117.75 111.75 93.75
207475 1 102.75 99.75 96.75
208115 1 102.75 123.75 96.75
214437 1 108.75 120.75 99.75
214438 1 111.75 120.75 99.75
220833 1 96.75 120.75 102.75
222137 1 168.75 168.75 102.75
227236 1 105.75 120.75 105.75
254622 1 183.75 186.75 117.75
278362 1 123.75 117.75 129.75
278595 1 102.75 126.75 129.75
681957 1 110.25 134.25 80.25
688938 1 173.25 155.25 83.25
700834 1 101.25 122.25 89.25
700998 1 113.25 128.25 89.25
701245 1 134.25 137.25 89.25
706916 1 107.25 110.25 92.25
707235 1 104.25 122.25 92.25
707236 1 107.25 122.25 92.25
712994 1 101.25 98.25 95.25
720120 1 119.25 125.25 98.25
746934 1 161.25 170.25 110.25
753412 1 155.25 173.25 113.25
779825 1 194.25 203.25 125.25
