ITEM: TIMESTEP
74000
ITEM: NUMBER OF ATOMS
30
ITEM: BOX BOUNDS pp pp pp
0 240
0 240
0 240
ITEM: ATOMS id type x y z
232537 1 168.75 78.75 108.75
252687 1 138.75 114.75 117.75
271058 1 51.75 84.75 126.75
277459 1 54.75 84.75 129.75
297820 1 177.75 126.75 138.75
309651 1 150.75 90.75 144.75
309959 1 114.75 102.75 144.75
310604 1 129.75 126.75 144.75
310918 1 111.75 138.75 144.75
316924 1 129.75 123.75 147.75
381242 1 123.75 135.75 177.75
393156 1 105.75 102.75 183.75
419324 1 129.75 123.75 195.75
425725 1 132.75 123.75 198.75
433240 1 117.75 165.75 201.75
699623 1 68.25 77.25 89.25
757649 1 146.25 92.25 116.25
757976 1 167.25 104.25 116.25
795770 1 29.25 83.25 134.25
808845 1 134.25 92.25 140.25
816278 1 113.25 131.25 143.25
816359 1 116.25 134.25 143.25
816437 1 110.25 137.25 143.25
822758 1 113.25 134.25 146.25
822836 1 107.25 137.25 146.25
827805 1 134.25 83.25 149.25
827886 1 137.25 86.25 149.25
834537 1 170.25 95.25 152.25
848437 1 110.25 137.25 158.25
881404 1 131.25 173.25 173.25
