ITEM: TIMESTEP
74000
ITEM: NUMBER OF ATOMS
20
ITEM: BOX BOUNDS pp pp pp
0 240
0 240
0 240
ITEM: ATOMS id type x y z
233898 1 171.75 129.75 108.75
251971 1 150.75 87.75 117.75
265150 1 87.75 102.75 123.75
278277 1 108.75 114.75 129.75
284355 1 102.75 102.75 132.75
302602 1 123.75 66.75 141.75
304197 1 108.75 126.75 141.75
304278 1 111.75 129.75 141.75
323489 1 144.75 129.75 150.75
329888 1 141.75 129.75 153.75
412284 1 129.75 99.75 192.75
412365 1 132.75 102.75 192.75
725644 1 131.25 92.25 101.25
731964 1 131.25 89.25 104.25
765796 1 107.25 158.25 119.25
801803 1 128.25 68.25 137.25
802455 1 164.25 92.25 137.25
816197 1 110.25 128.25 143.25
911564 1 131.25 104.25 188.25
932023 1 68.25 152.25 197.25
