ITEM: TIMESTEP
74191
ITEM: NUMBER OF ATOMS
18
ITEM: BOX BOUNDS pp pp pp
0 240
0 240
0 240
ITEM: ATOMS id type x y z
214914 1 99.75 138.75 99.75
220833 1 96.75 120.75 102.75
233315 1 102.75 108.75 108.75
233483 1 126.75 114.75 108.75
245951 1 90.75 102.75 114.75
246194 1 99.75 111.75 114.75
246275 1 102.75 114.75 114.75
246285 1 132.75 114.75 114.75
252440 1 117.75 105.75 117.75
284768 1 141.75 117.75 132.75
291247 1 138.75 120.75 135.75
739000 1 119.25 113.25 107.25
744922 1 125.25 95.25 110.25
751231 1 92.25 92.25 113.25
758604 1 131.25 128.25 116.25
764117 1 110.25 95.25 119.25
764434 1 101.25 107.25 119.25
789556 1 107.25 89.25 131.25
